*SPEF "ieee 1481-1999"
*DESIGN "lab3"
*DATE "20:36:32 Sunday May 25, 2025"
*VENDOR "The OpenROAD Project"
*PROGRAM "OpenROAD"
*VERSION "b16bda7e82721d10566ff7e2b68f1ff0be9f9e38"
*DESIGN_FLOW "NAME_SCOPE LOCAL" "PIN_CAP NONE"
*DIVIDER /
*DELIMITER :
*BUS_DELIMITER []
*T_UNIT 1 NS
*C_UNIT 1 PF
*R_UNIT 1 OHM
*L_UNIT 1 HENRY

*NAME_MAP
*3 net8
*4 net9
*5 net10
*6 net11
*7 clk
*8 rst_button
*9 seg[0]
*10 seg[1]
*11 seg[2]
*12 seg[3]
*13 seg[4]
*14 seg[5]
*15 seg[6]
*16 _000_
*17 _001_
*18 _002_
*19 _003_
*20 _004_
*21 _005_
*22 _006_
*23 _007_
*24 _008_
*25 _009_
*26 _010_
*27 _011_
*28 _012_
*29 _013_
*30 _014_
*31 _015_
*32 _016_
*33 _017_
*34 _018_
*35 _019_
*36 _020_
*37 _021_
*38 _022_
*39 _023_
*40 _024_
*41 _025_
*42 _026_
*43 _027_
*44 _028_
*45 _029_
*46 _030_
*47 _031_
*48 _032_
*49 _033_
*50 _034_
*51 _035_
*52 _036_
*53 _037_
*54 _038_
*55 _039_
*56 _040_
*57 _041_
*58 _042_
*59 _043_
*60 _044_
*61 _045_
*62 _046_
*63 _047_
*64 _048_
*65 _049_
*66 _050_
*67 _051_
*68 _052_
*69 _053_
*70 _054_
*71 _055_
*72 _056_
*73 _057_
*74 _058_
*75 _059_
*76 _060_
*77 _061_
*78 _062_
*79 _063_
*80 _064_
*81 _065_
*82 _066_
*83 _067_
*84 _068_
*85 _069_
*86 _070_
*87 _071_
*88 _072_
*89 _073_
*90 _074_
*91 _075_
*92 _076_
*93 _077_
*94 _078_
*95 _079_
*96 _080_
*97 _081_
*98 _082_
*99 _083_
*100 _084_
*101 _085_
*102 _086_
*103 _087_
*104 _088_
*105 _089_
*106 _090_
*107 _091_
*108 _092_
*109 _093_
*110 _094_
*111 _095_
*112 _096_
*113 _097_
*114 _098_
*115 _099_
*116 _100_
*117 _101_
*118 _102_
*119 _103_
*120 _104_
*121 _105_
*122 _106_
*123 _107_
*124 _108_
*125 _109_
*126 _110_
*127 _111_
*128 _112_
*129 _113_
*130 _114_
*131 _115_
*132 _116_
*133 _117_
*134 _118_
*135 _119_
*136 _120_
*137 _121_
*138 _122_
*139 _123_
*140 _124_
*141 _125_
*142 _126_
*143 _127_
*144 _128_
*145 _129_
*146 _130_
*147 _131_
*148 _132_
*149 _133_
*150 _134_
*151 _135_
*152 _136_
*153 _137_
*154 _138_
*155 _139_
*156 _140_
*157 _141_
*158 _142_
*159 _143_
*160 _144_
*161 _145_
*162 _146_
*163 _147_
*164 _148_
*165 _149_
*166 _150_
*167 _151_
*168 _152_
*169 _153_
*170 _154_
*171 _155_
*172 _156_
*173 clknet_0_clk
*174 clknet_2_0__leaf_clk
*175 clknet_2_1__leaf_clk
*176 clknet_2_2__leaf_clk
*177 clknet_2_3__leaf_clk
*178 counter\.clk
*179 counter\.count\[0\]
*180 counter\.count\[1\]
*181 counter\.count\[2\]
*182 counter\.count\[3\]
*183 div\.count\[0\]
*184 div\.count\[10\]
*185 div\.count\[11\]
*186 div\.count\[12\]
*187 div\.count\[13\]
*188 div\.count\[14\]
*189 div\.count\[15\]
*190 div\.count\[16\]
*191 div\.count\[17\]
*192 div\.count\[18\]
*193 div\.count\[19\]
*194 div\.count\[1\]
*195 div\.count\[20\]
*196 div\.count\[21\]
*197 div\.count\[22\]
*198 div\.count\[23\]
*199 div\.count\[24\]
*200 div\.count\[25\]
*201 div\.count\[26\]
*202 div\.count\[27\]
*203 div\.count\[28\]
*204 div\.count\[29\]
*205 div\.count\[2\]
*206 div\.count\[30\]
*207 div\.count\[31\]
*208 div\.count\[3\]
*209 div\.count\[4\]
*210 div\.count\[5\]
*211 div\.count\[6\]
*212 div\.count\[7\]
*213 div\.count\[8\]
*214 div\.count\[9\]
*215 net1
*216 net2
*217 net3
*218 net4
*219 net5
*220 net6
*221 net7
*222 ANTENNA__157__A
*223 ANTENNA__157__B
*224 ANTENNA__157__C
*225 ANTENNA__157__D_N
*226 ANTENNA__158__A
*227 ANTENNA__158__B
*228 ANTENNA__158__C
*229 ANTENNA__158__D
*230 ANTENNA__159__A
*231 ANTENNA__159__B
*232 ANTENNA__159__C
*233 ANTENNA__159__D
*234 ANTENNA__160__A
*235 ANTENNA__160__B
*236 ANTENNA__160__C
*237 ANTENNA__160__D_N
*238 ANTENNA__161__A
*239 ANTENNA__162__B
*240 ANTENNA__162__C
*241 ANTENNA__162__D
*242 ANTENNA__163__A
*243 ANTENNA__163__B
*244 ANTENNA__163__C
*245 ANTENNA__164__A
*246 ANTENNA__164__B
*247 ANTENNA__164__C
*248 ANTENNA__165__A
*249 ANTENNA__165__B
*250 ANTENNA__165__C
*251 ANTENNA__165__D_N
*252 ANTENNA__166__A
*253 ANTENNA__166__B
*254 ANTENNA__166__C
*255 ANTENNA__166__D_N
*256 ANTENNA__167__A
*257 ANTENNA__167__B
*258 ANTENNA__168__A
*259 ANTENNA__168__B
*260 ANTENNA__169__A_N
*261 ANTENNA__169__B
*262 ANTENNA__170__A
*263 ANTENNA__171__A
*264 ANTENNA__171__B
*265 ANTENNA__172__A
*266 ANTENNA__172__B
*267 ANTENNA__173__A
*268 ANTENNA__173__B
*269 ANTENNA__174__A
*270 ANTENNA__175__A
*271 ANTENNA__175__B
*272 ANTENNA__176__A
*273 ANTENNA__176__B
*274 ANTENNA__176__C
*275 ANTENNA__176__D
*276 ANTENNA__178__A1
*277 ANTENNA__178__A2
*278 ANTENNA__178__A3
*279 ANTENNA__178__B1
*280 ANTENNA__179__A_N
*281 ANTENNA__180__A
*282 ANTENNA__181__A
*283 ANTENNA__181__B
*284 ANTENNA__182__A
*285 ANTENNA__182__B
*286 ANTENNA__182__C
*287 ANTENNA__183__A1
*288 ANTENNA__183__A2
*289 ANTENNA__183__B1
*290 ANTENNA__184__A
*291 ANTENNA__184__B
*292 ANTENNA__185__A
*293 ANTENNA__185__B
*294 ANTENNA__186__A
*295 ANTENNA__186__B
*296 ANTENNA__187__A
*297 ANTENNA__187__B
*298 ANTENNA__187__C
*299 ANTENNA__188__A
*300 ANTENNA__189__A
*301 ANTENNA__190__A
*302 ANTENNA__190__B
*303 ANTENNA__190__C
*304 ANTENNA__190__D
*305 ANTENNA__191__A
*306 ANTENNA__191__B
*307 ANTENNA__192__A1
*308 ANTENNA__192__A2
*309 ANTENNA__192__B1
*310 ANTENNA__193__A1
*311 ANTENNA__193__A2
*312 ANTENNA__193__B1
*313 ANTENNA__194__A1
*314 ANTENNA__194__A2
*315 ANTENNA__195__A
*316 ANTENNA__195__B
*317 ANTENNA__195__C
*318 ANTENNA__195__D
*319 ANTENNA__197__A
*320 ANTENNA__197__C
*321 ANTENNA__197__D_N
*322 ANTENNA__198__A
*323 ANTENNA__198__B
*324 ANTENNA__198__C
*325 ANTENNA__198__D
*326 ANTENNA__199__A
*327 ANTENNA__200__A1
*328 ANTENNA__200__A2
*329 ANTENNA__200__A3
*330 ANTENNA__200__B1
*331 ANTENNA__201__A
*332 ANTENNA__201__B
*333 ANTENNA__202__A
*334 ANTENNA__203__A
*335 ANTENNA__203__B
*336 ANTENNA__204__A1
*337 ANTENNA__204__A2
*338 ANTENNA__204__B1
*339 ANTENNA__205__A
*340 ANTENNA__205__B
*341 ANTENNA__205__C
*342 ANTENNA__206__A
*343 ANTENNA__206__B
*344 ANTENNA__206__C
*345 ANTENNA__207__A
*346 ANTENNA__208__A
*347 ANTENNA__208__B
*348 ANTENNA__209__A
*349 ANTENNA__209__B
*350 ANTENNA__209__C
*351 ANTENNA__209__D
*352 ANTENNA__210__A
*353 ANTENNA__210__B
*354 ANTENNA__210__C
*355 ANTENNA__210__D
*356 ANTENNA__211__A
*357 ANTENNA__211__B
*358 ANTENNA__212__A1
*359 ANTENNA__212__B1_N
*360 ANTENNA__213__A
*361 ANTENNA__213__B
*362 ANTENNA__214__A1
*363 ANTENNA__214__A2
*364 ANTENNA__214__B1
*365 ANTENNA__214__C1
*366 ANTENNA__215__A
*367 ANTENNA__215__B
*368 ANTENNA__216__A
*369 ANTENNA__216__B
*370 ANTENNA__216__C
*371 ANTENNA__216__D
*372 ANTENNA__217__A
*373 ANTENNA__217__B
*374 ANTENNA__217__C
*375 ANTENNA__219__A
*376 ANTENNA__219__B
*377 ANTENNA__220__A1
*378 ANTENNA__220__A2
*379 ANTENNA__220__B1
*380 ANTENNA__221__A
*381 ANTENNA__221__B
*382 ANTENNA__221__C
*383 ANTENNA__222__B
*384 ANTENNA__223__A
*385 ANTENNA__223__B
*386 ANTENNA__224__A
*387 ANTENNA__224__B
*388 ANTENNA__224__C
*389 ANTENNA__224__D
*390 ANTENNA__225__A
*391 ANTENNA__225__C
*392 ANTENNA__227__A
*393 ANTENNA__227__B_N
*394 ANTENNA__228__A
*395 ANTENNA__228__B
*396 ANTENNA__228__C
*397 ANTENNA__228__D
*398 ANTENNA__229__A
*399 ANTENNA__229__B
*400 ANTENNA__230__A
*401 ANTENNA__230__B
*402 ANTENNA__231__A
*403 ANTENNA__232__A
*404 ANTENNA__232__B
*405 ANTENNA__232__C
*406 ANTENNA__233__A1
*407 ANTENNA__233__A2
*408 ANTENNA__233__B1
*409 ANTENNA__234__A
*410 ANTENNA__234__B
*411 ANTENNA__235__A
*412 ANTENNA__235__B
*413 ANTENNA__236__A1
*414 ANTENNA__236__A2
*415 ANTENNA__236__B1
*416 ANTENNA__237__A
*417 ANTENNA__237__B
*418 ANTENNA__237__C
*419 ANTENNA__238__A
*420 ANTENNA__238__C
*421 ANTENNA__239__A
*422 ANTENNA__240__A
*423 ANTENNA__240__B
*424 ANTENNA__241__A
*425 ANTENNA__241__B
*426 ANTENNA__241__C
*427 ANTENNA__242__A
*428 ANTENNA__242__B
*429 ANTENNA__242__C
*430 ANTENNA__243__A
*431 ANTENNA__244__A
*432 ANTENNA__244__B
*433 ANTENNA__245__A1
*434 ANTENNA__245__A2
*435 ANTENNA__245__B1
*436 ANTENNA__246__A
*437 ANTENNA__246__B
*438 ANTENNA__246__C
*439 ANTENNA__247__A
*440 ANTENNA__247__B
*441 ANTENNA__248__A
*442 ANTENNA__248__B
*443 ANTENNA__249__A
*444 ANTENNA__249__B
*445 ANTENNA__249__C
*446 ANTENNA__249__D
*447 ANTENNA__250__A
*448 ANTENNA__250__B
*449 ANTENNA__250__C
*450 ANTENNA__250__D
*451 ANTENNA__251__A
*452 ANTENNA__252__A1
*453 ANTENNA__252__B1_N
*454 ANTENNA__253__A
*455 ANTENNA__253__B
*456 ANTENNA__254__A
*457 ANTENNA__254__B
*458 ANTENNA__255__B
*459 ANTENNA__256__A
*460 ANTENNA__256__B
*461 ANTENNA__256__C
*462 ANTENNA__257__A1
*463 ANTENNA__257__B1
*464 ANTENNA__258__A
*465 ANTENNA__258__B
*466 ANTENNA__259__A
*467 ANTENNA__259__B
*468 ANTENNA__259__C
*469 ANTENNA__259__D
*470 ANTENNA__261__A
*471 ANTENNA__261__B
*472 ANTENNA__261__C
*473 ANTENNA__263__A
*474 ANTENNA__264__A1
*475 ANTENNA__264__A2
*476 ANTENNA__264__B1
*477 ANTENNA__265__A
*478 ANTENNA__265__B
*479 ANTENNA__266__A
*480 ANTENNA__266__B
*481 ANTENNA__266__C
*482 ANTENNA__267__A1
*483 ANTENNA__267__A2
*484 ANTENNA__267__B1
*485 ANTENNA__268__A
*486 ANTENNA__268__B
*487 ANTENNA__270__A
*488 ANTENNA__270__B
*489 ANTENNA__271__A1
*490 ANTENNA__271__A2
*491 ANTENNA__271__B1
*492 ANTENNA__272__A
*493 ANTENNA__273__A
*494 ANTENNA__274__A1
*495 ANTENNA__274__A2
*496 ANTENNA__274__B1
*497 ANTENNA__274__C1
*498 ANTENNA__275__A1
*499 ANTENNA__275__A2
*500 ANTENNA__275__B1
*501 ANTENNA__276__A
*502 ANTENNA__276__B
*503 ANTENNA__276__C
*504 ANTENNA__278__A1
*505 ANTENNA__278__A2
*506 ANTENNA__278__A3
*507 ANTENNA__278__B1
*508 ANTENNA__280__A
*509 ANTENNA__281__A
*510 ANTENNA__282__A
*511 ANTENNA__283__A
*512 ANTENNA__284__A
*513 ANTENNA__285__A
*514 ANTENNA__286__A
*515 ANTENNA__287__A
*516 ANTENNA__288__A
*517 ANTENNA__289__A
*518 ANTENNA__290__A
*519 ANTENNA__291__A
*520 ANTENNA__292__A
*521 ANTENNA__293__A
*522 ANTENNA__294__A
*523 ANTENNA__295__A
*524 ANTENNA__296__A
*525 ANTENNA__297__A
*526 ANTENNA__298__A
*527 ANTENNA__299__A
*528 ANTENNA__300__A
*529 ANTENNA__301__A
*530 ANTENNA__302__A
*531 ANTENNA__303__A
*532 ANTENNA__304__A
*533 ANTENNA__305__A
*534 ANTENNA__306__A
*535 ANTENNA__307__A
*536 ANTENNA__308__A
*537 ANTENNA__309__A
*538 ANTENNA__310__A
*539 ANTENNA__311__A
*540 ANTENNA__312__A
*541 ANTENNA__313__A
*542 ANTENNA__314__A
*543 ANTENNA__315__A
*544 ANTENNA__316__A
*545 ANTENNA__317__A
*546 ANTENNA__318__A
*547 ANTENNA__319__A
*548 ANTENNA__320__CLK
*549 ANTENNA__321__CLK
*550 ANTENNA__321__D
*551 ANTENNA__322__CLK
*552 ANTENNA__322__D
*553 ANTENNA__323__CLK
*554 ANTENNA__323__RESET_B
*555 ANTENNA__324__CLK
*556 ANTENNA__324__RESET_B
*557 ANTENNA__325__CLK
*558 ANTENNA__326__CLK
*559 ANTENNA__326__RESET_B
*560 ANTENNA__327__CLK
*561 ANTENNA__328__CLK
*562 ANTENNA__328__RESET_B
*563 ANTENNA__329__CLK
*564 ANTENNA__330__CLK
*565 ANTENNA__330__D
*566 ANTENNA__331__CLK
*567 ANTENNA__332__CLK
*568 ANTENNA__333__CLK
*569 ANTENNA__333__RESET_B
*570 ANTENNA__334__CLK
*571 ANTENNA__334__RESET_B
*572 ANTENNA__335__CLK
*573 ANTENNA__335__D
*574 ANTENNA__335__RESET_B
*575 ANTENNA__336__CLK
*576 ANTENNA__337__CLK
*577 ANTENNA__337__D
*578 ANTENNA__338__CLK
*579 ANTENNA__339__CLK
*580 ANTENNA__339__D
*581 ANTENNA__339__RESET_B
*582 ANTENNA__340__CLK
*583 ANTENNA__341__CLK
*584 ANTENNA__341__D
*585 ANTENNA__341__RESET_B
*586 ANTENNA__342__CLK
*587 ANTENNA__342__D
*588 ANTENNA__342__RESET_B
*589 ANTENNA__343__CLK
*590 ANTENNA__343__D
*591 ANTENNA__343__RESET_B
*592 ANTENNA__344__CLK
*593 ANTENNA__344__D
*594 ANTENNA__345__CLK
*595 ANTENNA__345__D
*596 ANTENNA__346__CLK
*597 ANTENNA__347__CLK
*598 ANTENNA__348__CLK
*599 ANTENNA__348__RESET_B
*600 ANTENNA__349__CLK
*601 ANTENNA__349__D
*602 ANTENNA__350__CLK
*603 ANTENNA__350__RESET_B
*604 ANTENNA__351__CLK
*605 ANTENNA__352__CLK
*606 ANTENNA__353__CLK
*607 ANTENNA__353__D
*608 ANTENNA__354__CLK
*609 ANTENNA__354__D
*610 ANTENNA__355__CLK
*611 ANTENNA__356__CLK
*612 ANTENNA__361__A
*613 ANTENNA_clkload0_A
*614 ANTENNA_clkload1_A
*615 ANTENNA_clkload2_A
*616 ANTENNA_output3_A
*617 ANTENNA_output4_A
*618 ANTENNA_output5_A
*619 ANTENNA_output6_A
*620 ANTENNA_output7_A
*621 FILLER_0_0_101
*622 FILLER_0_0_108
*623 FILLER_0_0_113
*624 FILLER_0_0_125
*625 FILLER_0_0_137
*626 FILLER_0_0_141
*627 FILLER_0_0_147
*628 FILLER_0_0_15
*629 FILLER_0_0_151
*630 FILLER_0_0_163
*631 FILLER_0_0_167
*632 FILLER_0_0_169
*633 FILLER_0_0_181
*634 FILLER_0_0_193
*635 FILLER_0_0_197
*636 FILLER_0_0_204
*637 FILLER_0_0_208
*638 FILLER_0_0_220
*639 FILLER_0_0_225
*640 FILLER_0_0_23
*641 FILLER_0_0_27
*642 FILLER_0_0_29
*643 FILLER_0_0_3
*644 FILLER_0_0_80
*645 FILLER_0_0_85
*646 FILLER_0_0_89
*647 FILLER_0_10_109
*648 FILLER_0_10_123
*649 FILLER_0_10_133
*650 FILLER_0_10_137
*651 FILLER_0_10_141
*652 FILLER_0_10_145
*653 FILLER_0_10_149
*654 FILLER_0_10_15
*655 FILLER_0_10_174
*656 FILLER_0_10_178
*657 FILLER_0_10_185
*658 FILLER_0_10_189
*659 FILLER_0_10_195
*660 FILLER_0_10_197
*661 FILLER_0_10_203
*662 FILLER_0_10_207
*663 FILLER_0_10_219
*664 FILLER_0_10_225
*665 FILLER_0_10_231
*666 FILLER_0_10_27
*667 FILLER_0_10_29
*668 FILLER_0_10_3
*669 FILLER_0_10_45
*670 FILLER_0_10_49
*671 FILLER_0_10_53
*672 FILLER_0_10_65
*673 FILLER_0_10_77
*674 FILLER_0_10_80
*675 FILLER_0_10_85
*676 FILLER_0_10_97
*677 FILLER_0_11_110
*678 FILLER_0_11_12
*679 FILLER_0_11_136
*680 FILLER_0_11_140
*681 FILLER_0_11_148
*682 FILLER_0_11_151
*683 FILLER_0_11_157
*684 FILLER_0_11_165
*685 FILLER_0_11_169
*686 FILLER_0_11_181
*687 FILLER_0_11_193
*688 FILLER_0_11_205
*689 FILLER_0_11_217
*690 FILLER_0_11_223
*691 FILLER_0_11_225
*692 FILLER_0_11_24
*693 FILLER_0_11_3
*694 FILLER_0_11_39
*695 FILLER_0_11_43
*696 FILLER_0_11_55
*697 FILLER_0_11_57
*698 FILLER_0_11_65
*699 FILLER_0_11_76
*700 FILLER_0_11_82
*701 FILLER_0_11_86
*702 FILLER_0_11_9
*703 FILLER_0_11_98
*704 FILLER_0_12_10
*705 FILLER_0_12_108
*706 FILLER_0_12_120
*707 FILLER_0_12_132
*708 FILLER_0_12_141
*709 FILLER_0_12_147
*710 FILLER_0_12_151
*711 FILLER_0_12_155
*712 FILLER_0_12_16
*713 FILLER_0_12_165
*714 FILLER_0_12_179
*715 FILLER_0_12_191
*716 FILLER_0_12_195
*717 FILLER_0_12_197
*718 FILLER_0_12_20
*719 FILLER_0_12_209
*720 FILLER_0_12_213
*721 FILLER_0_12_218
*722 FILLER_0_12_222
*723 FILLER_0_12_230
*724 FILLER_0_12_29
*725 FILLER_0_12_41
*726 FILLER_0_12_52
*727 FILLER_0_12_60
*728 FILLER_0_12_88
*729 FILLER_0_12_92
*730 FILLER_0_12_96
*731 FILLER_0_13_105
*732 FILLER_0_13_108
*733 FILLER_0_13_113
*734 FILLER_0_13_125
*735 FILLER_0_13_130
*736 FILLER_0_13_138
*737 FILLER_0_13_15
*738 FILLER_0_13_165
*739 FILLER_0_13_177
*740 FILLER_0_13_181
*741 FILLER_0_13_185
*742 FILLER_0_13_189
*743 FILLER_0_13_201
*744 FILLER_0_13_213
*745 FILLER_0_13_221
*746 FILLER_0_13_225
*747 FILLER_0_13_27
*748 FILLER_0_13_3
*749 FILLER_0_13_39
*750 FILLER_0_13_51
*751 FILLER_0_13_55
*752 FILLER_0_13_57
*753 FILLER_0_13_69
*754 FILLER_0_13_81
*755 FILLER_0_13_93
*756 FILLER_0_14_101
*757 FILLER_0_14_126
*758 FILLER_0_14_15
*759 FILLER_0_14_174
*760 FILLER_0_14_178
*761 FILLER_0_14_186
*762 FILLER_0_14_194
*763 FILLER_0_14_197
*764 FILLER_0_14_209
*765 FILLER_0_14_221
*766 FILLER_0_14_27
*767 FILLER_0_14_29
*768 FILLER_0_14_3
*769 FILLER_0_14_37
*770 FILLER_0_14_49
*771 FILLER_0_14_61
*772 FILLER_0_14_73
*773 FILLER_0_14_81
*774 FILLER_0_14_85
*775 FILLER_0_14_97
*776 FILLER_0_15_111
*777 FILLER_0_15_113
*778 FILLER_0_15_125
*779 FILLER_0_15_137
*780 FILLER_0_15_141
*781 FILLER_0_15_145
*782 FILLER_0_15_149
*783 FILLER_0_15_15
*784 FILLER_0_15_155
*785 FILLER_0_15_158
*786 FILLER_0_15_162
*787 FILLER_0_15_166
*788 FILLER_0_15_169
*789 FILLER_0_15_177
*790 FILLER_0_15_182
*791 FILLER_0_15_209
*792 FILLER_0_15_213
*793 FILLER_0_15_221
*794 FILLER_0_15_225
*795 FILLER_0_15_27
*796 FILLER_0_15_3
*797 FILLER_0_15_36
*798 FILLER_0_15_43
*799 FILLER_0_15_47
*800 FILLER_0_15_55
*801 FILLER_0_15_57
*802 FILLER_0_15_69
*803 FILLER_0_15_81
*804 FILLER_0_15_93
*805 FILLER_0_15_99
*806 FILLER_0_16_109
*807 FILLER_0_16_12
*808 FILLER_0_16_121
*809 FILLER_0_16_133
*810 FILLER_0_16_139
*811 FILLER_0_16_141
*812 FILLER_0_16_153
*813 FILLER_0_16_165
*814 FILLER_0_16_177
*815 FILLER_0_16_189
*816 FILLER_0_16_195
*817 FILLER_0_16_197
*818 FILLER_0_16_201
*819 FILLER_0_16_205
*820 FILLER_0_16_208
*821 FILLER_0_16_24
*822 FILLER_0_16_29
*823 FILLER_0_16_3
*824 FILLER_0_16_35
*825 FILLER_0_16_41
*826 FILLER_0_16_54
*827 FILLER_0_16_58
*828 FILLER_0_16_64
*829 FILLER_0_16_68
*830 FILLER_0_16_71
*831 FILLER_0_16_8
*832 FILLER_0_16_83
*833 FILLER_0_16_85
*834 FILLER_0_16_97
*835 FILLER_0_17_103
*836 FILLER_0_17_111
*837 FILLER_0_17_113
*838 FILLER_0_17_125
*839 FILLER_0_17_133
*840 FILLER_0_17_137
*841 FILLER_0_17_149
*842 FILLER_0_17_15
*843 FILLER_0_17_161
*844 FILLER_0_17_167
*845 FILLER_0_17_169
*846 FILLER_0_17_181
*847 FILLER_0_17_193
*848 FILLER_0_17_199
*849 FILLER_0_17_225
*850 FILLER_0_17_27
*851 FILLER_0_17_3
*852 FILLER_0_17_51
*853 FILLER_0_17_69
*854 FILLER_0_17_95
*855 FILLER_0_17_99
*856 FILLER_0_18_128
*857 FILLER_0_18_132
*858 FILLER_0_18_141
*859 FILLER_0_18_145
*860 FILLER_0_18_15
*861 FILLER_0_18_157
*862 FILLER_0_18_169
*863 FILLER_0_18_181
*864 FILLER_0_18_19
*865 FILLER_0_18_193
*866 FILLER_0_18_197
*867 FILLER_0_18_209
*868 FILLER_0_18_221
*869 FILLER_0_18_227
*870 FILLER_0_18_25
*871 FILLER_0_18_29
*872 FILLER_0_18_3
*873 FILLER_0_18_36
*874 FILLER_0_18_48
*875 FILLER_0_18_53
*876 FILLER_0_18_59
*877 FILLER_0_18_62
*878 FILLER_0_18_74
*879 FILLER_0_18_82
*880 FILLER_0_18_85
*881 FILLER_0_18_97
*882 FILLER_0_19_105
*883 FILLER_0_19_111
*884 FILLER_0_19_113
*885 FILLER_0_19_125
*886 FILLER_0_19_137
*887 FILLER_0_19_140
*888 FILLER_0_19_15
*889 FILLER_0_19_150
*890 FILLER_0_19_154
*891 FILLER_0_19_169
*892 FILLER_0_19_179
*893 FILLER_0_19_183
*894 FILLER_0_19_195
*895 FILLER_0_19_207
*896 FILLER_0_19_219
*897 FILLER_0_19_223
*898 FILLER_0_19_225
*899 FILLER_0_19_23
*900 FILLER_0_19_26
*901 FILLER_0_19_3
*902 FILLER_0_19_36
*903 FILLER_0_19_48
*904 FILLER_0_19_57
*905 FILLER_0_19_69
*906 FILLER_0_19_81
*907 FILLER_0_19_93
*908 FILLER_0_1_109
*909 FILLER_0_1_11
*910 FILLER_0_1_113
*911 FILLER_0_1_125
*912 FILLER_0_1_137
*913 FILLER_0_1_169
*914 FILLER_0_1_173
*915 FILLER_0_1_185
*916 FILLER_0_1_199
*917 FILLER_0_1_21
*918 FILLER_0_1_228
*919 FILLER_0_1_232
*920 FILLER_0_1_25
*921 FILLER_0_1_29
*922 FILLER_0_1_3
*923 FILLER_0_1_33
*924 FILLER_0_1_45
*925 FILLER_0_1_49
*926 FILLER_0_1_52
*927 FILLER_0_1_57
*928 FILLER_0_1_62
*929 FILLER_0_1_66
*930 FILLER_0_1_78
*931 FILLER_0_1_90
*932 FILLER_0_1_97
*933 FILLER_0_20_103
*934 FILLER_0_20_11
*935 FILLER_0_20_115
*936 FILLER_0_20_129
*937 FILLER_0_20_137
*938 FILLER_0_20_141
*939 FILLER_0_20_15
*940 FILLER_0_20_153
*941 FILLER_0_20_157
*942 FILLER_0_20_183
*943 FILLER_0_20_195
*944 FILLER_0_20_197
*945 FILLER_0_20_209
*946 FILLER_0_20_221
*947 FILLER_0_20_24
*948 FILLER_0_20_3
*949 FILLER_0_20_34
*950 FILLER_0_20_40
*951 FILLER_0_20_44
*952 FILLER_0_20_56
*953 FILLER_0_20_68
*954 FILLER_0_20_7
*955 FILLER_0_20_80
*956 FILLER_0_20_91
*957 FILLER_0_21_101
*958 FILLER_0_21_106
*959 FILLER_0_21_110
*960 FILLER_0_21_113
*961 FILLER_0_21_121
*962 FILLER_0_21_127
*963 FILLER_0_21_132
*964 FILLER_0_21_136
*965 FILLER_0_21_144
*966 FILLER_0_21_15
*967 FILLER_0_21_155
*968 FILLER_0_21_159
*969 FILLER_0_21_163
*970 FILLER_0_21_167
*971 FILLER_0_21_169
*972 FILLER_0_21_181
*973 FILLER_0_21_193
*974 FILLER_0_21_205
*975 FILLER_0_21_211
*976 FILLER_0_21_219
*977 FILLER_0_21_228
*978 FILLER_0_21_27
*979 FILLER_0_21_3
*980 FILLER_0_21_39
*981 FILLER_0_21_51
*982 FILLER_0_21_55
*983 FILLER_0_21_57
*984 FILLER_0_21_69
*985 FILLER_0_21_81
*986 FILLER_0_21_93
*987 FILLER_0_22_105
*988 FILLER_0_22_138
*989 FILLER_0_22_141
*990 FILLER_0_22_149
*991 FILLER_0_22_15
*992 FILLER_0_22_152
*993 FILLER_0_22_164
*994 FILLER_0_22_176
*995 FILLER_0_22_188
*996 FILLER_0_22_197
*997 FILLER_0_22_205
*998 FILLER_0_22_209
*999 FILLER_0_22_232
*1000 FILLER_0_22_27
*1001 FILLER_0_22_29
*1002 FILLER_0_22_3
*1003 FILLER_0_22_33
*1004 FILLER_0_22_37
*1005 FILLER_0_22_41
*1006 FILLER_0_22_53
*1007 FILLER_0_22_65
*1008 FILLER_0_22_77
*1009 FILLER_0_22_83
*1010 FILLER_0_22_85
*1011 FILLER_0_22_97
*1012 FILLER_0_23_105
*1013 FILLER_0_23_111
*1014 FILLER_0_23_133
*1015 FILLER_0_23_137
*1016 FILLER_0_23_15
*1017 FILLER_0_23_150
*1018 FILLER_0_23_154
*1019 FILLER_0_23_158
*1020 FILLER_0_23_166
*1021 FILLER_0_23_169
*1022 FILLER_0_23_173
*1023 FILLER_0_23_177
*1024 FILLER_0_23_181
*1025 FILLER_0_23_185
*1026 FILLER_0_23_189
*1027 FILLER_0_23_201
*1028 FILLER_0_23_209
*1029 FILLER_0_23_213
*1030 FILLER_0_23_217
*1031 FILLER_0_23_27
*1032 FILLER_0_23_3
*1033 FILLER_0_23_33
*1034 FILLER_0_23_40
*1035 FILLER_0_23_52
*1036 FILLER_0_23_57
*1037 FILLER_0_23_69
*1038 FILLER_0_23_81
*1039 FILLER_0_23_93
*1040 FILLER_0_24_10
*1041 FILLER_0_24_104
*1042 FILLER_0_24_112
*1043 FILLER_0_24_116
*1044 FILLER_0_24_120
*1045 FILLER_0_24_132
*1046 FILLER_0_24_136
*1047 FILLER_0_24_14
*1048 FILLER_0_24_151
*1049 FILLER_0_24_155
*1050 FILLER_0_24_159
*1051 FILLER_0_24_167
*1052 FILLER_0_24_178
*1053 FILLER_0_24_188
*1054 FILLER_0_24_192
*1055 FILLER_0_24_197
*1056 FILLER_0_24_205
*1057 FILLER_0_24_232
*1058 FILLER_0_24_26
*1059 FILLER_0_24_29
*1060 FILLER_0_24_39
*1061 FILLER_0_24_43
*1062 FILLER_0_24_47
*1063 FILLER_0_24_51
*1064 FILLER_0_24_6
*1065 FILLER_0_24_63
*1066 FILLER_0_24_75
*1067 FILLER_0_24_83
*1068 FILLER_0_24_88
*1069 FILLER_0_24_92
*1070 FILLER_0_25_103
*1071 FILLER_0_25_111
*1072 FILLER_0_25_116
*1073 FILLER_0_25_120
*1074 FILLER_0_25_132
*1075 FILLER_0_25_144
*1076 FILLER_0_25_15
*1077 FILLER_0_25_156
*1078 FILLER_0_25_164
*1079 FILLER_0_25_169
*1080 FILLER_0_25_192
*1081 FILLER_0_25_204
*1082 FILLER_0_25_216
*1083 FILLER_0_25_225
*1084 FILLER_0_25_27
*1085 FILLER_0_25_3
*1086 FILLER_0_25_41
*1087 FILLER_0_25_53
*1088 FILLER_0_25_57
*1089 FILLER_0_25_69
*1090 FILLER_0_25_83
*1091 FILLER_0_25_87
*1092 FILLER_0_25_91
*1093 FILLER_0_26_109
*1094 FILLER_0_26_11
*1095 FILLER_0_26_121
*1096 FILLER_0_26_133
*1097 FILLER_0_26_139
*1098 FILLER_0_26_141
*1099 FILLER_0_26_153
*1100 FILLER_0_26_165
*1101 FILLER_0_26_17
*1102 FILLER_0_26_177
*1103 FILLER_0_26_189
*1104 FILLER_0_26_195
*1105 FILLER_0_26_197
*1106 FILLER_0_26_209
*1107 FILLER_0_26_21
*1108 FILLER_0_26_221
*1109 FILLER_0_26_27
*1110 FILLER_0_26_29
*1111 FILLER_0_26_3
*1112 FILLER_0_26_37
*1113 FILLER_0_26_43
*1114 FILLER_0_26_47
*1115 FILLER_0_26_59
*1116 FILLER_0_26_71
*1117 FILLER_0_26_83
*1118 FILLER_0_26_85
*1119 FILLER_0_26_97
*1120 FILLER_0_27_103
*1121 FILLER_0_27_107
*1122 FILLER_0_27_111
*1123 FILLER_0_27_113
*1124 FILLER_0_27_117
*1125 FILLER_0_27_124
*1126 FILLER_0_27_128
*1127 FILLER_0_27_140
*1128 FILLER_0_27_15
*1129 FILLER_0_27_152
*1130 FILLER_0_27_155
*1131 FILLER_0_27_167
*1132 FILLER_0_27_169
*1133 FILLER_0_27_181
*1134 FILLER_0_27_193
*1135 FILLER_0_27_205
*1136 FILLER_0_27_217
*1137 FILLER_0_27_223
*1138 FILLER_0_27_225
*1139 FILLER_0_27_27
*1140 FILLER_0_27_3
*1141 FILLER_0_27_39
*1142 FILLER_0_27_51
*1143 FILLER_0_27_55
*1144 FILLER_0_27_57
*1145 FILLER_0_27_69
*1146 FILLER_0_27_81
*1147 FILLER_0_27_93
*1148 FILLER_0_27_99
*1149 FILLER_0_28_120
*1150 FILLER_0_28_132
*1151 FILLER_0_28_136
*1152 FILLER_0_28_141
*1153 FILLER_0_28_147
*1154 FILLER_0_28_15
*1155 FILLER_0_28_156
*1156 FILLER_0_28_161
*1157 FILLER_0_28_165
*1158 FILLER_0_28_169
*1159 FILLER_0_28_181
*1160 FILLER_0_28_192
*1161 FILLER_0_28_204
*1162 FILLER_0_28_208
*1163 FILLER_0_28_220
*1164 FILLER_0_28_224
*1165 FILLER_0_28_27
*1166 FILLER_0_28_29
*1167 FILLER_0_28_3
*1168 FILLER_0_28_35
*1169 FILLER_0_28_39
*1170 FILLER_0_28_43
*1171 FILLER_0_28_61
*1172 FILLER_0_28_65
*1173 FILLER_0_28_69
*1174 FILLER_0_28_81
*1175 FILLER_0_28_85
*1176 FILLER_0_29_102
*1177 FILLER_0_29_108
*1178 FILLER_0_29_113
*1179 FILLER_0_29_117
*1180 FILLER_0_29_138
*1181 FILLER_0_29_142
*1182 FILLER_0_29_15
*1183 FILLER_0_29_154
*1184 FILLER_0_29_166
*1185 FILLER_0_29_169
*1186 FILLER_0_29_181
*1187 FILLER_0_29_184
*1188 FILLER_0_29_207
*1189 FILLER_0_29_219
*1190 FILLER_0_29_223
*1191 FILLER_0_29_225
*1192 FILLER_0_29_23
*1193 FILLER_0_29_3
*1194 FILLER_0_29_49
*1195 FILLER_0_29_53
*1196 FILLER_0_29_57
*1197 FILLER_0_29_69
*1198 FILLER_0_29_81
*1199 FILLER_0_29_89
*1200 FILLER_0_2_108
*1201 FILLER_0_2_120
*1202 FILLER_0_2_132
*1203 FILLER_0_2_141
*1204 FILLER_0_2_149
*1205 FILLER_0_2_15
*1206 FILLER_0_2_153
*1207 FILLER_0_2_173
*1208 FILLER_0_2_177
*1209 FILLER_0_2_181
*1210 FILLER_0_2_193
*1211 FILLER_0_2_197
*1212 FILLER_0_2_203
*1213 FILLER_0_2_207
*1214 FILLER_0_2_219
*1215 FILLER_0_2_231
*1216 FILLER_0_2_25
*1217 FILLER_0_2_29
*1218 FILLER_0_2_3
*1219 FILLER_0_2_35
*1220 FILLER_0_2_43
*1221 FILLER_0_2_47
*1222 FILLER_0_2_51
*1223 FILLER_0_2_63
*1224 FILLER_0_2_71
*1225 FILLER_0_2_74
*1226 FILLER_0_2_82
*1227 FILLER_0_2_85
*1228 FILLER_0_2_92
*1229 FILLER_0_2_96
*1230 FILLER_0_30_100
*1231 FILLER_0_30_104
*1232 FILLER_0_30_114
*1233 FILLER_0_30_119
*1234 FILLER_0_30_123
*1235 FILLER_0_30_135
*1236 FILLER_0_30_139
*1237 FILLER_0_30_141
*1238 FILLER_0_30_149
*1239 FILLER_0_30_15
*1240 FILLER_0_30_171
*1241 FILLER_0_30_183
*1242 FILLER_0_30_186
*1243 FILLER_0_30_194
*1244 FILLER_0_30_197
*1245 FILLER_0_30_209
*1246 FILLER_0_30_217
*1247 FILLER_0_30_222
*1248 FILLER_0_30_226
*1249 FILLER_0_30_27
*1250 FILLER_0_30_29
*1251 FILLER_0_30_3
*1252 FILLER_0_30_41
*1253 FILLER_0_30_53
*1254 FILLER_0_30_65
*1255 FILLER_0_30_71
*1256 FILLER_0_30_77
*1257 FILLER_0_30_83
*1258 FILLER_0_30_85
*1259 FILLER_0_30_97
*1260 FILLER_0_31_107
*1261 FILLER_0_31_111
*1262 FILLER_0_31_113
*1263 FILLER_0_31_125
*1264 FILLER_0_31_137
*1265 FILLER_0_31_15
*1266 FILLER_0_31_169
*1267 FILLER_0_31_173
*1268 FILLER_0_31_183
*1269 FILLER_0_31_195
*1270 FILLER_0_31_207
*1271 FILLER_0_31_211
*1272 FILLER_0_31_215
*1273 FILLER_0_31_223
*1274 FILLER_0_31_225
*1275 FILLER_0_31_27
*1276 FILLER_0_31_3
*1277 FILLER_0_31_39
*1278 FILLER_0_31_51
*1279 FILLER_0_31_55
*1280 FILLER_0_31_57
*1281 FILLER_0_31_65
*1282 FILLER_0_31_71
*1283 FILLER_0_31_75
*1284 FILLER_0_31_87
*1285 FILLER_0_31_99
*1286 FILLER_0_32_103
*1287 FILLER_0_32_107
*1288 FILLER_0_32_111
*1289 FILLER_0_32_114
*1290 FILLER_0_32_126
*1291 FILLER_0_32_138
*1292 FILLER_0_32_141
*1293 FILLER_0_32_149
*1294 FILLER_0_32_15
*1295 FILLER_0_32_155
*1296 FILLER_0_32_159
*1297 FILLER_0_32_165
*1298 FILLER_0_32_174
*1299 FILLER_0_32_178
*1300 FILLER_0_32_182
*1301 FILLER_0_32_191
*1302 FILLER_0_32_195
*1303 FILLER_0_32_197
*1304 FILLER_0_32_209
*1305 FILLER_0_32_221
*1306 FILLER_0_32_27
*1307 FILLER_0_32_29
*1308 FILLER_0_32_3
*1309 FILLER_0_32_41
*1310 FILLER_0_32_53
*1311 FILLER_0_32_65
*1312 FILLER_0_32_77
*1313 FILLER_0_32_83
*1314 FILLER_0_32_85
*1315 FILLER_0_32_99
*1316 FILLER_0_33_105
*1317 FILLER_0_33_136
*1318 FILLER_0_33_140
*1319 FILLER_0_33_152
*1320 FILLER_0_33_160
*1321 FILLER_0_33_164
*1322 FILLER_0_33_169
*1323 FILLER_0_33_181
*1324 FILLER_0_33_19
*1325 FILLER_0_33_193
*1326 FILLER_0_33_205
*1327 FILLER_0_33_217
*1328 FILLER_0_33_223
*1329 FILLER_0_33_225
*1330 FILLER_0_33_229
*1331 FILLER_0_33_23
*1332 FILLER_0_33_27
*1333 FILLER_0_33_3
*1334 FILLER_0_33_35
*1335 FILLER_0_33_47
*1336 FILLER_0_33_51
*1337 FILLER_0_33_55
*1338 FILLER_0_33_57
*1339 FILLER_0_33_69
*1340 FILLER_0_33_81
*1341 FILLER_0_33_93
*1342 FILLER_0_34_109
*1343 FILLER_0_34_121
*1344 FILLER_0_34_133
*1345 FILLER_0_34_139
*1346 FILLER_0_34_144
*1347 FILLER_0_34_148
*1348 FILLER_0_34_15
*1349 FILLER_0_34_152
*1350 FILLER_0_34_186
*1351 FILLER_0_34_190
*1352 FILLER_0_34_194
*1353 FILLER_0_34_197
*1354 FILLER_0_34_201
*1355 FILLER_0_34_204
*1356 FILLER_0_34_208
*1357 FILLER_0_34_213
*1358 FILLER_0_34_225
*1359 FILLER_0_34_27
*1360 FILLER_0_34_29
*1361 FILLER_0_34_3
*1362 FILLER_0_34_41
*1363 FILLER_0_34_54
*1364 FILLER_0_34_58
*1365 FILLER_0_34_62
*1366 FILLER_0_34_74
*1367 FILLER_0_34_82
*1368 FILLER_0_34_85
*1369 FILLER_0_34_97
*1370 FILLER_0_35_106
*1371 FILLER_0_35_113
*1372 FILLER_0_35_117
*1373 FILLER_0_35_143
*1374 FILLER_0_35_147
*1375 FILLER_0_35_15
*1376 FILLER_0_35_159
*1377 FILLER_0_35_162
*1378 FILLER_0_35_166
*1379 FILLER_0_35_169
*1380 FILLER_0_35_180
*1381 FILLER_0_35_184
*1382 FILLER_0_35_188
*1383 FILLER_0_35_196
*1384 FILLER_0_35_200
*1385 FILLER_0_35_204
*1386 FILLER_0_35_221
*1387 FILLER_0_35_225
*1388 FILLER_0_35_27
*1389 FILLER_0_35_3
*1390 FILLER_0_35_39
*1391 FILLER_0_35_51
*1392 FILLER_0_35_55
*1393 FILLER_0_35_57
*1394 FILLER_0_35_69
*1395 FILLER_0_35_81
*1396 FILLER_0_35_89
*1397 FILLER_0_35_94
*1398 FILLER_0_36_109
*1399 FILLER_0_36_121
*1400 FILLER_0_36_133
*1401 FILLER_0_36_139
*1402 FILLER_0_36_141
*1403 FILLER_0_36_149
*1404 FILLER_0_36_15
*1405 FILLER_0_36_161
*1406 FILLER_0_36_169
*1407 FILLER_0_36_173
*1408 FILLER_0_36_181
*1409 FILLER_0_36_185
*1410 FILLER_0_36_189
*1411 FILLER_0_36_193
*1412 FILLER_0_36_197
*1413 FILLER_0_36_203
*1414 FILLER_0_36_206
*1415 FILLER_0_36_211
*1416 FILLER_0_36_215
*1417 FILLER_0_36_227
*1418 FILLER_0_36_27
*1419 FILLER_0_36_29
*1420 FILLER_0_36_3
*1421 FILLER_0_36_41
*1422 FILLER_0_36_53
*1423 FILLER_0_36_65
*1424 FILLER_0_36_77
*1425 FILLER_0_36_83
*1426 FILLER_0_36_85
*1427 FILLER_0_36_97
*1428 FILLER_0_37_107
*1429 FILLER_0_37_139
*1430 FILLER_0_37_143
*1431 FILLER_0_37_147
*1432 FILLER_0_37_15
*1433 FILLER_0_37_159
*1434 FILLER_0_37_167
*1435 FILLER_0_37_169
*1436 FILLER_0_37_181
*1437 FILLER_0_37_193
*1438 FILLER_0_37_201
*1439 FILLER_0_37_208
*1440 FILLER_0_37_212
*1441 FILLER_0_37_220
*1442 FILLER_0_37_231
*1443 FILLER_0_37_27
*1444 FILLER_0_37_3
*1445 FILLER_0_37_39
*1446 FILLER_0_37_51
*1447 FILLER_0_37_55
*1448 FILLER_0_37_71
*1449 FILLER_0_37_75
*1450 FILLER_0_37_87
*1451 FILLER_0_37_99
*1452 FILLER_0_38_109
*1453 FILLER_0_38_121
*1454 FILLER_0_38_129
*1455 FILLER_0_38_139
*1456 FILLER_0_38_141
*1457 FILLER_0_38_145
*1458 FILLER_0_38_149
*1459 FILLER_0_38_15
*1460 FILLER_0_38_161
*1461 FILLER_0_38_173
*1462 FILLER_0_38_185
*1463 FILLER_0_38_193
*1464 FILLER_0_38_200
*1465 FILLER_0_38_204
*1466 FILLER_0_38_216
*1467 FILLER_0_38_228
*1468 FILLER_0_38_27
*1469 FILLER_0_38_29
*1470 FILLER_0_38_3
*1471 FILLER_0_38_33
*1472 FILLER_0_38_55
*1473 FILLER_0_38_59
*1474 FILLER_0_38_63
*1475 FILLER_0_38_75
*1476 FILLER_0_38_83
*1477 FILLER_0_38_85
*1478 FILLER_0_38_97
*1479 FILLER_0_39_105
*1480 FILLER_0_39_111
*1481 FILLER_0_39_113
*1482 FILLER_0_39_125
*1483 FILLER_0_39_142
*1484 FILLER_0_39_149
*1485 FILLER_0_39_15
*1486 FILLER_0_39_153
*1487 FILLER_0_39_165
*1488 FILLER_0_39_169
*1489 FILLER_0_39_181
*1490 FILLER_0_39_193
*1491 FILLER_0_39_205
*1492 FILLER_0_39_217
*1493 FILLER_0_39_223
*1494 FILLER_0_39_225
*1495 FILLER_0_39_27
*1496 FILLER_0_39_3
*1497 FILLER_0_39_31
*1498 FILLER_0_39_57
*1499 FILLER_0_39_61
*1500 FILLER_0_39_65
*1501 FILLER_0_39_69
*1502 FILLER_0_39_81
*1503 FILLER_0_39_93
*1504 FILLER_0_3_102
*1505 FILLER_0_3_110
*1506 FILLER_0_3_113
*1507 FILLER_0_3_117
*1508 FILLER_0_3_12
*1509 FILLER_0_3_121
*1510 FILLER_0_3_133
*1511 FILLER_0_3_139
*1512 FILLER_0_3_147
*1513 FILLER_0_3_153
*1514 FILLER_0_3_157
*1515 FILLER_0_3_161
*1516 FILLER_0_3_167
*1517 FILLER_0_3_169
*1518 FILLER_0_3_17
*1519 FILLER_0_3_181
*1520 FILLER_0_3_193
*1521 FILLER_0_3_205
*1522 FILLER_0_3_217
*1523 FILLER_0_3_223
*1524 FILLER_0_3_225
*1525 FILLER_0_3_3
*1526 FILLER_0_3_40
*1527 FILLER_0_3_44
*1528 FILLER_0_3_48
*1529 FILLER_0_3_57
*1530 FILLER_0_3_72
*1531 FILLER_0_3_76
*1532 FILLER_0_3_79
*1533 FILLER_0_3_9
*1534 FILLER_0_3_90
*1535 FILLER_0_3_94
*1536 FILLER_0_3_98
*1537 FILLER_0_40_101
*1538 FILLER_0_40_113
*1539 FILLER_0_40_125
*1540 FILLER_0_40_137
*1541 FILLER_0_40_141
*1542 FILLER_0_40_145
*1543 FILLER_0_40_15
*1544 FILLER_0_40_153
*1545 FILLER_0_40_164
*1546 FILLER_0_40_168
*1547 FILLER_0_40_180
*1548 FILLER_0_40_192
*1549 FILLER_0_40_197
*1550 FILLER_0_40_209
*1551 FILLER_0_40_215
*1552 FILLER_0_40_218
*1553 FILLER_0_40_23
*1554 FILLER_0_40_230
*1555 FILLER_0_40_29
*1556 FILLER_0_40_3
*1557 FILLER_0_40_33
*1558 FILLER_0_40_37
*1559 FILLER_0_40_40
*1560 FILLER_0_40_44
*1561 FILLER_0_40_48
*1562 FILLER_0_40_52
*1563 FILLER_0_40_56
*1564 FILLER_0_40_60
*1565 FILLER_0_40_68
*1566 FILLER_0_40_72
*1567 FILLER_0_40_82
*1568 FILLER_0_40_85
*1569 FILLER_0_40_89
*1570 FILLER_0_41_105
*1571 FILLER_0_41_11
*1572 FILLER_0_41_111
*1573 FILLER_0_41_113
*1574 FILLER_0_41_125
*1575 FILLER_0_41_137
*1576 FILLER_0_41_149
*1577 FILLER_0_41_15
*1578 FILLER_0_41_153
*1579 FILLER_0_41_163
*1580 FILLER_0_41_167
*1581 FILLER_0_41_169
*1582 FILLER_0_41_181
*1583 FILLER_0_41_193
*1584 FILLER_0_41_205
*1585 FILLER_0_41_211
*1586 FILLER_0_41_214
*1587 FILLER_0_41_223
*1588 FILLER_0_41_225
*1589 FILLER_0_41_3
*1590 FILLER_0_41_48
*1591 FILLER_0_41_52
*1592 FILLER_0_41_57
*1593 FILLER_0_41_69
*1594 FILLER_0_41_7
*1595 FILLER_0_41_81
*1596 FILLER_0_41_93
*1597 FILLER_0_42_101
*1598 FILLER_0_42_113
*1599 FILLER_0_42_12
*1600 FILLER_0_42_121
*1601 FILLER_0_42_125
*1602 FILLER_0_42_133
*1603 FILLER_0_42_139
*1604 FILLER_0_42_141
*1605 FILLER_0_42_153
*1606 FILLER_0_42_157
*1607 FILLER_0_42_169
*1608 FILLER_0_42_175
*1609 FILLER_0_42_178
*1610 FILLER_0_42_186
*1611 FILLER_0_42_190
*1612 FILLER_0_42_197
*1613 FILLER_0_42_209
*1614 FILLER_0_42_221
*1615 FILLER_0_42_29
*1616 FILLER_0_42_33
*1617 FILLER_0_42_39
*1618 FILLER_0_42_43
*1619 FILLER_0_42_48
*1620 FILLER_0_42_52
*1621 FILLER_0_42_64
*1622 FILLER_0_42_7
*1623 FILLER_0_42_76
*1624 FILLER_0_42_85
*1625 FILLER_0_42_89
*1626 FILLER_0_43_106
*1627 FILLER_0_43_113
*1628 FILLER_0_43_125
*1629 FILLER_0_43_137
*1630 FILLER_0_43_14
*1631 FILLER_0_43_149
*1632 FILLER_0_43_161
*1633 FILLER_0_43_167
*1634 FILLER_0_43_169
*1635 FILLER_0_43_181
*1636 FILLER_0_43_193
*1637 FILLER_0_43_20
*1638 FILLER_0_43_205
*1639 FILLER_0_43_217
*1640 FILLER_0_43_223
*1641 FILLER_0_43_225
*1642 FILLER_0_43_229
*1643 FILLER_0_43_24
*1644 FILLER_0_43_28
*1645 FILLER_0_43_3
*1646 FILLER_0_43_32
*1647 FILLER_0_43_36
*1648 FILLER_0_43_48
*1649 FILLER_0_43_57
*1650 FILLER_0_43_69
*1651 FILLER_0_43_77
*1652 FILLER_0_43_83
*1653 FILLER_0_43_87
*1654 FILLER_0_43_95
*1655 FILLER_0_44_109
*1656 FILLER_0_44_121
*1657 FILLER_0_44_133
*1658 FILLER_0_44_139
*1659 FILLER_0_44_141
*1660 FILLER_0_44_15
*1661 FILLER_0_44_153
*1662 FILLER_0_44_165
*1663 FILLER_0_44_177
*1664 FILLER_0_44_189
*1665 FILLER_0_44_195
*1666 FILLER_0_44_197
*1667 FILLER_0_44_209
*1668 FILLER_0_44_212
*1669 FILLER_0_44_224
*1670 FILLER_0_44_232
*1671 FILLER_0_44_27
*1672 FILLER_0_44_29
*1673 FILLER_0_44_3
*1674 FILLER_0_44_41
*1675 FILLER_0_44_53
*1676 FILLER_0_44_65
*1677 FILLER_0_44_77
*1678 FILLER_0_44_83
*1679 FILLER_0_44_85
*1680 FILLER_0_44_97
*1681 FILLER_0_45_102
*1682 FILLER_0_45_106
*1683 FILLER_0_45_110
*1684 FILLER_0_45_113
*1685 FILLER_0_45_125
*1686 FILLER_0_45_137
*1687 FILLER_0_45_149
*1688 FILLER_0_45_15
*1689 FILLER_0_45_159
*1690 FILLER_0_45_167
*1691 FILLER_0_45_169
*1692 FILLER_0_45_181
*1693 FILLER_0_45_193
*1694 FILLER_0_45_205
*1695 FILLER_0_45_208
*1696 FILLER_0_45_212
*1697 FILLER_0_45_219
*1698 FILLER_0_45_223
*1699 FILLER_0_45_225
*1700 FILLER_0_45_27
*1701 FILLER_0_45_3
*1702 FILLER_0_45_39
*1703 FILLER_0_45_51
*1704 FILLER_0_45_55
*1705 FILLER_0_45_57
*1706 FILLER_0_45_69
*1707 FILLER_0_45_81
*1708 FILLER_0_45_93
*1709 FILLER_0_46_105
*1710 FILLER_0_46_113
*1711 FILLER_0_46_135
*1712 FILLER_0_46_139
*1713 FILLER_0_46_141
*1714 FILLER_0_46_15
*1715 FILLER_0_46_153
*1716 FILLER_0_46_157
*1717 FILLER_0_46_166
*1718 FILLER_0_46_169
*1719 FILLER_0_46_181
*1720 FILLER_0_46_193
*1721 FILLER_0_46_197
*1722 FILLER_0_46_225
*1723 FILLER_0_46_229
*1724 FILLER_0_46_27
*1725 FILLER_0_46_29
*1726 FILLER_0_46_3
*1727 FILLER_0_46_41
*1728 FILLER_0_46_53
*1729 FILLER_0_46_57
*1730 FILLER_0_46_82
*1731 FILLER_0_46_85
*1732 FILLER_0_46_89
*1733 FILLER_0_46_97
*1734 FILLER_0_4_10
*1735 FILLER_0_4_104
*1736 FILLER_0_4_116
*1737 FILLER_0_4_128
*1738 FILLER_0_4_134
*1739 FILLER_0_4_137
*1740 FILLER_0_4_14
*1741 FILLER_0_4_145
*1742 FILLER_0_4_149
*1743 FILLER_0_4_161
*1744 FILLER_0_4_173
*1745 FILLER_0_4_185
*1746 FILLER_0_4_193
*1747 FILLER_0_4_197
*1748 FILLER_0_4_208
*1749 FILLER_0_4_212
*1750 FILLER_0_4_22
*1751 FILLER_0_4_224
*1752 FILLER_0_4_232
*1753 FILLER_0_4_26
*1754 FILLER_0_4_29
*1755 FILLER_0_4_33
*1756 FILLER_0_4_36
*1757 FILLER_0_4_48
*1758 FILLER_0_4_60
*1759 FILLER_0_4_68
*1760 FILLER_0_4_77
*1761 FILLER_0_4_81
*1762 FILLER_0_4_85
*1763 FILLER_0_4_89
*1764 FILLER_0_4_92
*1765 FILLER_0_5_101
*1766 FILLER_0_5_105
*1767 FILLER_0_5_109
*1768 FILLER_0_5_113
*1769 FILLER_0_5_12
*1770 FILLER_0_5_125
*1771 FILLER_0_5_137
*1772 FILLER_0_5_141
*1773 FILLER_0_5_145
*1774 FILLER_0_5_157
*1775 FILLER_0_5_16
*1776 FILLER_0_5_165
*1777 FILLER_0_5_169
*1778 FILLER_0_5_181
*1779 FILLER_0_5_194
*1780 FILLER_0_5_20
*1781 FILLER_0_5_206
*1782 FILLER_0_5_218
*1783 FILLER_0_5_225
*1784 FILLER_0_5_24
*1785 FILLER_0_5_36
*1786 FILLER_0_5_48
*1787 FILLER_0_5_57
*1788 FILLER_0_5_69
*1789 FILLER_0_5_81
*1790 FILLER_0_5_89
*1791 FILLER_0_6_105
*1792 FILLER_0_6_113
*1793 FILLER_0_6_120
*1794 FILLER_0_6_124
*1795 FILLER_0_6_128
*1796 FILLER_0_6_14
*1797 FILLER_0_6_141
*1798 FILLER_0_6_172
*1799 FILLER_0_6_176
*1800 FILLER_0_6_18
*1801 FILLER_0_6_180
*1802 FILLER_0_6_192
*1803 FILLER_0_6_197
*1804 FILLER_0_6_209
*1805 FILLER_0_6_22
*1806 FILLER_0_6_221
*1807 FILLER_0_6_29
*1808 FILLER_0_6_3
*1809 FILLER_0_6_41
*1810 FILLER_0_6_45
*1811 FILLER_0_6_54
*1812 FILLER_0_6_58
*1813 FILLER_0_6_62
*1814 FILLER_0_6_66
*1815 FILLER_0_6_78
*1816 FILLER_0_6_85
*1817 FILLER_0_6_89
*1818 FILLER_0_6_93
*1819 FILLER_0_7_100
*1820 FILLER_0_7_104
*1821 FILLER_0_7_113
*1822 FILLER_0_7_125
*1823 FILLER_0_7_151
*1824 FILLER_0_7_155
*1825 FILLER_0_7_163
*1826 FILLER_0_7_169
*1827 FILLER_0_7_173
*1828 FILLER_0_7_185
*1829 FILLER_0_7_193
*1830 FILLER_0_7_197
*1831 FILLER_0_7_209
*1832 FILLER_0_7_221
*1833 FILLER_0_7_225
*1834 FILLER_0_7_28
*1835 FILLER_0_7_3
*1836 FILLER_0_7_32
*1837 FILLER_0_7_44
*1838 FILLER_0_7_57
*1839 FILLER_0_7_69
*1840 FILLER_0_7_96
*1841 FILLER_0_8_10
*1842 FILLER_0_8_109
*1843 FILLER_0_8_121
*1844 FILLER_0_8_133
*1845 FILLER_0_8_139
*1846 FILLER_0_8_14
*1847 FILLER_0_8_141
*1848 FILLER_0_8_153
*1849 FILLER_0_8_165
*1850 FILLER_0_8_18
*1851 FILLER_0_8_194
*1852 FILLER_0_8_208
*1853 FILLER_0_8_220
*1854 FILLER_0_8_26
*1855 FILLER_0_8_29
*1856 FILLER_0_8_3
*1857 FILLER_0_8_37
*1858 FILLER_0_8_48
*1859 FILLER_0_8_52
*1860 FILLER_0_8_64
*1861 FILLER_0_8_76
*1862 FILLER_0_8_85
*1863 FILLER_0_8_97
*1864 FILLER_0_9_105
*1865 FILLER_0_9_111
*1866 FILLER_0_9_113
*1867 FILLER_0_9_125
*1868 FILLER_0_9_137
*1869 FILLER_0_9_147
*1870 FILLER_0_9_15
*1871 FILLER_0_9_152
*1872 FILLER_0_9_156
*1873 FILLER_0_9_164
*1874 FILLER_0_9_169
*1875 FILLER_0_9_202
*1876 FILLER_0_9_214
*1877 FILLER_0_9_222
*1878 FILLER_0_9_225
*1879 FILLER_0_9_27
*1880 FILLER_0_9_3
*1881 FILLER_0_9_39
*1882 FILLER_0_9_42
*1883 FILLER_0_9_54
*1884 FILLER_0_9_57
*1885 FILLER_0_9_69
*1886 FILLER_0_9_81
*1887 FILLER_0_9_93
*1888 PHY_EDGE_ROW_0_Left_47
*1889 PHY_EDGE_ROW_0_Right_0
*1890 PHY_EDGE_ROW_10_Left_57
*1891 PHY_EDGE_ROW_10_Right_10
*1892 PHY_EDGE_ROW_11_Left_58
*1893 PHY_EDGE_ROW_11_Right_11
*1894 PHY_EDGE_ROW_12_Left_59
*1895 PHY_EDGE_ROW_12_Right_12
*1896 PHY_EDGE_ROW_13_Left_60
*1897 PHY_EDGE_ROW_13_Right_13
*1898 PHY_EDGE_ROW_14_Left_61
*1899 PHY_EDGE_ROW_14_Right_14
*1900 PHY_EDGE_ROW_15_Left_62
*1901 PHY_EDGE_ROW_15_Right_15
*1902 PHY_EDGE_ROW_16_Left_63
*1903 PHY_EDGE_ROW_16_Right_16
*1904 PHY_EDGE_ROW_17_Left_64
*1905 PHY_EDGE_ROW_17_Right_17
*1906 PHY_EDGE_ROW_18_Left_65
*1907 PHY_EDGE_ROW_18_Right_18
*1908 PHY_EDGE_ROW_19_Left_66
*1909 PHY_EDGE_ROW_19_Right_19
*1910 PHY_EDGE_ROW_1_Left_48
*1911 PHY_EDGE_ROW_1_Right_1
*1912 PHY_EDGE_ROW_20_Left_67
*1913 PHY_EDGE_ROW_20_Right_20
*1914 PHY_EDGE_ROW_21_Left_68
*1915 PHY_EDGE_ROW_21_Right_21
*1916 PHY_EDGE_ROW_22_Left_69
*1917 PHY_EDGE_ROW_22_Right_22
*1918 PHY_EDGE_ROW_23_Left_70
*1919 PHY_EDGE_ROW_23_Right_23
*1920 PHY_EDGE_ROW_24_Left_71
*1921 PHY_EDGE_ROW_24_Right_24
*1922 PHY_EDGE_ROW_25_Left_72
*1923 PHY_EDGE_ROW_25_Right_25
*1924 PHY_EDGE_ROW_26_Left_73
*1925 PHY_EDGE_ROW_26_Right_26
*1926 PHY_EDGE_ROW_27_Left_74
*1927 PHY_EDGE_ROW_27_Right_27
*1928 PHY_EDGE_ROW_28_Left_75
*1929 PHY_EDGE_ROW_28_Right_28
*1930 PHY_EDGE_ROW_29_Left_76
*1931 PHY_EDGE_ROW_29_Right_29
*1932 PHY_EDGE_ROW_2_Left_49
*1933 PHY_EDGE_ROW_2_Right_2
*1934 PHY_EDGE_ROW_30_Left_77
*1935 PHY_EDGE_ROW_30_Right_30
*1936 PHY_EDGE_ROW_31_Left_78
*1937 PHY_EDGE_ROW_31_Right_31
*1938 PHY_EDGE_ROW_32_Left_79
*1939 PHY_EDGE_ROW_32_Right_32
*1940 PHY_EDGE_ROW_33_Left_80
*1941 PHY_EDGE_ROW_33_Right_33
*1942 PHY_EDGE_ROW_34_Left_81
*1943 PHY_EDGE_ROW_34_Right_34
*1944 PHY_EDGE_ROW_35_Left_82
*1945 PHY_EDGE_ROW_35_Right_35
*1946 PHY_EDGE_ROW_36_Left_83
*1947 PHY_EDGE_ROW_36_Right_36
*1948 PHY_EDGE_ROW_37_Left_84
*1949 PHY_EDGE_ROW_37_Right_37
*1950 PHY_EDGE_ROW_38_Left_85
*1951 PHY_EDGE_ROW_38_Right_38
*1952 PHY_EDGE_ROW_39_Left_86
*1953 PHY_EDGE_ROW_39_Right_39
*1954 PHY_EDGE_ROW_3_Left_50
*1955 PHY_EDGE_ROW_3_Right_3
*1956 PHY_EDGE_ROW_40_Left_87
*1957 PHY_EDGE_ROW_40_Right_40
*1958 PHY_EDGE_ROW_41_Left_88
*1959 PHY_EDGE_ROW_41_Right_41
*1960 PHY_EDGE_ROW_42_Left_89
*1961 PHY_EDGE_ROW_42_Right_42
*1962 PHY_EDGE_ROW_43_Left_90
*1963 PHY_EDGE_ROW_43_Right_43
*1964 PHY_EDGE_ROW_44_Left_91
*1965 PHY_EDGE_ROW_44_Right_44
*1966 PHY_EDGE_ROW_45_Left_92
*1967 PHY_EDGE_ROW_45_Right_45
*1968 PHY_EDGE_ROW_46_Left_93
*1969 PHY_EDGE_ROW_46_Right_46
*1970 PHY_EDGE_ROW_4_Left_51
*1971 PHY_EDGE_ROW_4_Right_4
*1972 PHY_EDGE_ROW_5_Left_52
*1973 PHY_EDGE_ROW_5_Right_5
*1974 PHY_EDGE_ROW_6_Left_53
*1975 PHY_EDGE_ROW_6_Right_6
*1976 PHY_EDGE_ROW_7_Left_54
*1977 PHY_EDGE_ROW_7_Right_7
*1978 PHY_EDGE_ROW_8_Left_55
*1979 PHY_EDGE_ROW_8_Right_8
*1980 PHY_EDGE_ROW_9_Left_56
*1981 PHY_EDGE_ROW_9_Right_9
*1982 TAP_TAPCELL_ROW_0_100
*1983 TAP_TAPCELL_ROW_0_101
*1984 TAP_TAPCELL_ROW_0_94
*1985 TAP_TAPCELL_ROW_0_95
*1986 TAP_TAPCELL_ROW_0_96
*1987 TAP_TAPCELL_ROW_0_97
*1988 TAP_TAPCELL_ROW_0_98
*1989 TAP_TAPCELL_ROW_0_99
*1990 TAP_TAPCELL_ROW_10_138
*1991 TAP_TAPCELL_ROW_10_139
*1992 TAP_TAPCELL_ROW_10_140
*1993 TAP_TAPCELL_ROW_10_141
*1994 TAP_TAPCELL_ROW_11_142
*1995 TAP_TAPCELL_ROW_11_143
*1996 TAP_TAPCELL_ROW_11_144
*1997 TAP_TAPCELL_ROW_11_145
*1998 TAP_TAPCELL_ROW_12_146
*1999 TAP_TAPCELL_ROW_12_147
*2000 TAP_TAPCELL_ROW_12_148
*2001 TAP_TAPCELL_ROW_12_149
*2002 TAP_TAPCELL_ROW_13_150
*2003 TAP_TAPCELL_ROW_13_151
*2004 TAP_TAPCELL_ROW_13_152
*2005 TAP_TAPCELL_ROW_13_153
*2006 TAP_TAPCELL_ROW_14_154
*2007 TAP_TAPCELL_ROW_14_155
*2008 TAP_TAPCELL_ROW_14_156
*2009 TAP_TAPCELL_ROW_14_157
*2010 TAP_TAPCELL_ROW_15_158
*2011 TAP_TAPCELL_ROW_15_159
*2012 TAP_TAPCELL_ROW_15_160
*2013 TAP_TAPCELL_ROW_15_161
*2014 TAP_TAPCELL_ROW_16_162
*2015 TAP_TAPCELL_ROW_16_163
*2016 TAP_TAPCELL_ROW_16_164
*2017 TAP_TAPCELL_ROW_16_165
*2018 TAP_TAPCELL_ROW_17_166
*2019 TAP_TAPCELL_ROW_17_167
*2020 TAP_TAPCELL_ROW_17_168
*2021 TAP_TAPCELL_ROW_17_169
*2022 TAP_TAPCELL_ROW_18_170
*2023 TAP_TAPCELL_ROW_18_171
*2024 TAP_TAPCELL_ROW_18_172
*2025 TAP_TAPCELL_ROW_18_173
*2026 TAP_TAPCELL_ROW_19_174
*2027 TAP_TAPCELL_ROW_19_175
*2028 TAP_TAPCELL_ROW_19_176
*2029 TAP_TAPCELL_ROW_19_177
*2030 TAP_TAPCELL_ROW_1_102
*2031 TAP_TAPCELL_ROW_1_103
*2032 TAP_TAPCELL_ROW_1_104
*2033 TAP_TAPCELL_ROW_1_105
*2034 TAP_TAPCELL_ROW_20_178
*2035 TAP_TAPCELL_ROW_20_179
*2036 TAP_TAPCELL_ROW_20_180
*2037 TAP_TAPCELL_ROW_20_181
*2038 TAP_TAPCELL_ROW_21_182
*2039 TAP_TAPCELL_ROW_21_183
*2040 TAP_TAPCELL_ROW_21_184
*2041 TAP_TAPCELL_ROW_21_185
*2042 TAP_TAPCELL_ROW_22_186
*2043 TAP_TAPCELL_ROW_22_187
*2044 TAP_TAPCELL_ROW_22_188
*2045 TAP_TAPCELL_ROW_22_189
*2046 TAP_TAPCELL_ROW_23_190
*2047 TAP_TAPCELL_ROW_23_191
*2048 TAP_TAPCELL_ROW_23_192
*2049 TAP_TAPCELL_ROW_23_193
*2050 TAP_TAPCELL_ROW_24_194
*2051 TAP_TAPCELL_ROW_24_195
*2052 TAP_TAPCELL_ROW_24_196
*2053 TAP_TAPCELL_ROW_24_197
*2054 TAP_TAPCELL_ROW_25_198
*2055 TAP_TAPCELL_ROW_25_199
*2056 TAP_TAPCELL_ROW_25_200
*2057 TAP_TAPCELL_ROW_25_201
*2058 TAP_TAPCELL_ROW_26_202
*2059 TAP_TAPCELL_ROW_26_203
*2060 TAP_TAPCELL_ROW_26_204
*2061 TAP_TAPCELL_ROW_26_205
*2062 TAP_TAPCELL_ROW_27_206
*2063 TAP_TAPCELL_ROW_27_207
*2064 TAP_TAPCELL_ROW_27_208
*2065 TAP_TAPCELL_ROW_27_209
*2066 TAP_TAPCELL_ROW_28_210
*2067 TAP_TAPCELL_ROW_28_211
*2068 TAP_TAPCELL_ROW_28_212
*2069 TAP_TAPCELL_ROW_28_213
*2070 TAP_TAPCELL_ROW_29_214
*2071 TAP_TAPCELL_ROW_29_215
*2072 TAP_TAPCELL_ROW_29_216
*2073 TAP_TAPCELL_ROW_29_217
*2074 TAP_TAPCELL_ROW_2_106
*2075 TAP_TAPCELL_ROW_2_107
*2076 TAP_TAPCELL_ROW_2_108
*2077 TAP_TAPCELL_ROW_2_109
*2078 TAP_TAPCELL_ROW_30_218
*2079 TAP_TAPCELL_ROW_30_219
*2080 TAP_TAPCELL_ROW_30_220
*2081 TAP_TAPCELL_ROW_30_221
*2082 TAP_TAPCELL_ROW_31_222
*2083 TAP_TAPCELL_ROW_31_223
*2084 TAP_TAPCELL_ROW_31_224
*2085 TAP_TAPCELL_ROW_31_225
*2086 TAP_TAPCELL_ROW_32_226
*2087 TAP_TAPCELL_ROW_32_227
*2088 TAP_TAPCELL_ROW_32_228
*2089 TAP_TAPCELL_ROW_32_229
*2090 TAP_TAPCELL_ROW_33_230
*2091 TAP_TAPCELL_ROW_33_231
*2092 TAP_TAPCELL_ROW_33_232
*2093 TAP_TAPCELL_ROW_33_233
*2094 TAP_TAPCELL_ROW_34_234
*2095 TAP_TAPCELL_ROW_34_235
*2096 TAP_TAPCELL_ROW_34_236
*2097 TAP_TAPCELL_ROW_34_237
*2098 TAP_TAPCELL_ROW_35_238
*2099 TAP_TAPCELL_ROW_35_239
*2100 TAP_TAPCELL_ROW_35_240
*2101 TAP_TAPCELL_ROW_35_241
*2102 TAP_TAPCELL_ROW_36_242
*2103 TAP_TAPCELL_ROW_36_243
*2104 TAP_TAPCELL_ROW_36_244
*2105 TAP_TAPCELL_ROW_36_245
*2106 TAP_TAPCELL_ROW_37_246
*2107 TAP_TAPCELL_ROW_37_247
*2108 TAP_TAPCELL_ROW_37_248
*2109 TAP_TAPCELL_ROW_37_249
*2110 TAP_TAPCELL_ROW_38_250
*2111 TAP_TAPCELL_ROW_38_251
*2112 TAP_TAPCELL_ROW_38_252
*2113 TAP_TAPCELL_ROW_38_253
*2114 TAP_TAPCELL_ROW_39_254
*2115 TAP_TAPCELL_ROW_39_255
*2116 TAP_TAPCELL_ROW_39_256
*2117 TAP_TAPCELL_ROW_39_257
*2118 TAP_TAPCELL_ROW_3_110
*2119 TAP_TAPCELL_ROW_3_111
*2120 TAP_TAPCELL_ROW_3_112
*2121 TAP_TAPCELL_ROW_3_113
*2122 TAP_TAPCELL_ROW_40_258
*2123 TAP_TAPCELL_ROW_40_259
*2124 TAP_TAPCELL_ROW_40_260
*2125 TAP_TAPCELL_ROW_40_261
*2126 TAP_TAPCELL_ROW_41_262
*2127 TAP_TAPCELL_ROW_41_263
*2128 TAP_TAPCELL_ROW_41_264
*2129 TAP_TAPCELL_ROW_41_265
*2130 TAP_TAPCELL_ROW_42_266
*2131 TAP_TAPCELL_ROW_42_267
*2132 TAP_TAPCELL_ROW_42_268
*2133 TAP_TAPCELL_ROW_42_269
*2134 TAP_TAPCELL_ROW_43_270
*2135 TAP_TAPCELL_ROW_43_271
*2136 TAP_TAPCELL_ROW_43_272
*2137 TAP_TAPCELL_ROW_43_273
*2138 TAP_TAPCELL_ROW_44_274
*2139 TAP_TAPCELL_ROW_44_275
*2140 TAP_TAPCELL_ROW_44_276
*2141 TAP_TAPCELL_ROW_44_277
*2142 TAP_TAPCELL_ROW_45_278
*2143 TAP_TAPCELL_ROW_45_279
*2144 TAP_TAPCELL_ROW_45_280
*2145 TAP_TAPCELL_ROW_45_281
*2146 TAP_TAPCELL_ROW_46_282
*2147 TAP_TAPCELL_ROW_46_283
*2148 TAP_TAPCELL_ROW_46_284
*2149 TAP_TAPCELL_ROW_46_285
*2150 TAP_TAPCELL_ROW_46_286
*2151 TAP_TAPCELL_ROW_46_287
*2152 TAP_TAPCELL_ROW_46_288
*2153 TAP_TAPCELL_ROW_46_289
*2154 TAP_TAPCELL_ROW_4_114
*2155 TAP_TAPCELL_ROW_4_115
*2156 TAP_TAPCELL_ROW_4_116
*2157 TAP_TAPCELL_ROW_4_117
*2158 TAP_TAPCELL_ROW_5_118
*2159 TAP_TAPCELL_ROW_5_119
*2160 TAP_TAPCELL_ROW_5_120
*2161 TAP_TAPCELL_ROW_5_121
*2162 TAP_TAPCELL_ROW_6_122
*2163 TAP_TAPCELL_ROW_6_123
*2164 TAP_TAPCELL_ROW_6_124
*2165 TAP_TAPCELL_ROW_6_125
*2166 TAP_TAPCELL_ROW_7_126
*2167 TAP_TAPCELL_ROW_7_127
*2168 TAP_TAPCELL_ROW_7_128
*2169 TAP_TAPCELL_ROW_7_129
*2170 TAP_TAPCELL_ROW_8_130
*2171 TAP_TAPCELL_ROW_8_131
*2172 TAP_TAPCELL_ROW_8_132
*2173 TAP_TAPCELL_ROW_8_133
*2174 TAP_TAPCELL_ROW_9_134
*2175 TAP_TAPCELL_ROW_9_135
*2176 TAP_TAPCELL_ROW_9_136
*2177 TAP_TAPCELL_ROW_9_137
*2178 _157_
*2179 _158_
*2180 _159_
*2181 _160_
*2182 _161_
*2183 _162_
*2184 _163_
*2185 _164_
*2186 _165_
*2187 _166_
*2188 _167_
*2189 _168_
*2190 _169_
*2191 _170_
*2192 _171_
*2193 _172_
*2194 _173_
*2195 _174_
*2196 _175_
*2197 _176_
*2198 _177_
*2199 _178_
*2200 _179_
*2201 _180_
*2202 _181_
*2203 _182_
*2204 _183_
*2205 _184_
*2206 _185_
*2207 _186_
*2208 _187_
*2209 _188_
*2210 _189_
*2211 _190_
*2212 _191_
*2213 _192_
*2214 _193_
*2215 _194_
*2216 _195_
*2217 _196_
*2218 _197_
*2219 _198_
*2220 _199_
*2221 _200_
*2222 _201_
*2223 _202_
*2224 _203_
*2225 _204_
*2226 _205_
*2227 _206_
*2228 _207_
*2229 _208_
*2230 _209_
*2231 _210_
*2232 _211_
*2233 _212_
*2234 _213_
*2235 _214_
*2236 _215_
*2237 _216_
*2238 _217_
*2239 _218_
*2240 _219_
*2241 _220_
*2242 _221_
*2243 _222_
*2244 _223_
*2245 _224_
*2246 _225_
*2247 _226_
*2248 _227_
*2249 _228_
*2250 _229_
*2251 _230_
*2252 _231_
*2253 _232_
*2254 _233_
*2255 _234_
*2256 _235_
*2257 _236_
*2258 _237_
*2259 _238_
*2260 _239_
*2261 _240_
*2262 _241_
*2263 _242_
*2264 _243_
*2265 _244_
*2266 _245_
*2267 _246_
*2268 _247_
*2269 _248_
*2270 _249_
*2271 _250_
*2272 _251_
*2273 _252_
*2274 _253_
*2275 _254_
*2276 _255_
*2277 _256_
*2278 _257_
*2279 _258_
*2280 _259_
*2281 _260_
*2282 _261_
*2283 _262_
*2284 _263_
*2285 _264_
*2286 _265_
*2287 _266_
*2288 _267_
*2289 _268_
*2290 _269_
*2291 _270_
*2292 _271_
*2293 _272_
*2294 _273_
*2295 _274_
*2296 _275_
*2297 _276_
*2298 _277_
*2299 _278_
*2300 _279_
*2301 _280_
*2302 _281_
*2303 _282_
*2304 _283_
*2305 _284_
*2306 _285_
*2307 _286_
*2308 _287_
*2309 _288_
*2310 _289_
*2311 _290_
*2312 _291_
*2313 _292_
*2314 _293_
*2315 _294_
*2316 _295_
*2317 _296_
*2318 _297_
*2319 _298_
*2320 _299_
*2321 _300_
*2322 _301_
*2323 _302_
*2324 _303_
*2325 _304_
*2326 _305_
*2327 _306_
*2328 _307_
*2329 _308_
*2330 _309_
*2331 _310_
*2332 _311_
*2333 _312_
*2334 _313_
*2335 _314_
*2336 _315_
*2337 _316_
*2338 _317_
*2339 _318_
*2340 _319_
*2341 _320_
*2342 _321_
*2343 _322_
*2344 _323_
*2345 _324_
*2346 _325_
*2347 _326_
*2348 _327_
*2349 _328_
*2350 _329_
*2351 _330_
*2352 _331_
*2353 _332_
*2354 _333_
*2355 _334_
*2356 _335_
*2357 _336_
*2358 _337_
*2359 _338_
*2360 _339_
*2361 _340_
*2362 _341_
*2363 _342_
*2364 _343_
*2365 _344_
*2366 _345_
*2367 _346_
*2368 _347_
*2369 _348_
*2370 _349_
*2371 _350_
*2372 _351_
*2373 _352_
*2374 _353_
*2375 _354_
*2376 _355_
*2377 _356_
*2378 _361_
*2379 clkbuf_0_clk
*2380 clkbuf_2_0__f_clk
*2381 clkbuf_2_1__f_clk
*2382 clkbuf_2_2__f_clk
*2383 clkbuf_2_3__f_clk
*2384 clkload0
*2385 clkload1
*2386 clkload2
*2387 lab3_10
*2388 lab3_11
*2389 lab3_8
*2390 lab3_9
*2391 output1
*2392 output2
*2393 output3
*2394 output4
*2395 output5
*2396 output6
*2397 output7

*PORTS
an[0] O
an[1] O
an[2] O
an[3] O
clk I
rst_button I
seg[0] O
seg[1] O
seg[2] O
seg[3] O
seg[4] O
seg[5] O
seg[6] O

*D_NET *3 0.00180278
*CONN
*P an[0] O
*I *2389:LO O *D sky130_fd_sc_hd__conb_1
*CAP
1 an[0] 0.00047443
2 *2389:LO 0.000426959
3 *3:10 0.000901389
*RES
1 *2389:LO *3:10 45.6746 
2 *3:10 an[0] 9.35893 
*END

*D_NET *4 0.000787243
*CONN
*P an[1] O
*I *2390:HI O *D sky130_fd_sc_hd__conb_1
*CAP
1 an[1] 0.000393621
2 *2390:HI 0.000393621
*RES
1 *2390:HI an[1] 47.7832 
*END

*D_NET *5 0.000674653
*CONN
*P an[2] O
*I *2387:HI O *D sky130_fd_sc_hd__conb_1
*CAP
1 an[2] 0.000337326
2 *2387:HI 0.000337326
*RES
1 *2387:HI an[2] 49.5673 
*END

*D_NET *6 0.000814897
*CONN
*P an[3] O
*I *2388:HI O *D sky130_fd_sc_hd__conb_1
*CAP
1 an[3] 0.000389228
2 *2388:HI 0.000389228
3 an[3] *104:12 3.64407e-05
*RES
1 *2388:HI an[3] 47.7832 
*END

*D_NET *7 0.0178658
*CONN
*P clk I
*I *2379:A I *D sky130_fd_sc_hd__clkbuf_16
*CAP
1 clk 0.00638448
2 *2379:A 0
3 *7:17 0.00638448
4 *7:17 *21:24 0.000462596
5 *7:17 *30:16 0
6 *7:17 *71:18 0.00181345
7 *7:17 *97:24 0.00124313
8 *7:17 *117:14 0.000132483
9 *7:17 *123:12 0.000157052
10 *7:17 *123:20 2.75168e-05
11 *7:17 *132:18 0
12 *7:17 *138:26 0.000521252
13 *7:17 *159:16 0.000109447
14 *7:17 *166:24 0
15 *7:17 *167:26 0.000154082
16 *7:17 *212:12 0.000372506
17 *7:17 *212:14 8.22445e-05
18 *7:17 *212:20 2.11066e-05
19 *7:17 *214:36 0
*RES
1 clk *7:17 46.5886 
2 *7:17 *2379:A 38 
*END

*D_NET *8 0.0054192
*CONN
*P rst_button I
*I *2300:A I *D sky130_fd_sc_hd__clkbuf_8
*CAP
1 rst_button 0.00170592
2 *2300:A 0
3 *8:15 0.00170592
4 *8:15 *31:14 0
5 *8:15 *67:16 0.00190945
6 *8:15 *181:10 4.89546e-05
7 *8:15 *185:84 4.89546e-05
*RES
1 rst_button *8:15 29.3068 
2 *8:15 *2300:A 23 
*END

*D_NET *9 0.000683312
*CONN
*P seg[0] O
*I *2391:X O *D sky130_fd_sc_hd__buf_1
*CAP
1 seg[0] 0.000341656
2 *2391:X 0.000341656
*RES
1 *2391:X seg[0] 49.5673 
*END

*D_NET *10 0.00153809
*CONN
*P seg[1] O
*I *2392:X O *D sky130_fd_sc_hd__buf_1
*CAP
1 seg[1] 0.000385482
2 *2392:X 0.000216385
3 *10:10 0.000601868
4 *10:10 *2226:C 3.24862e-05
5 *10:10 *126:8 0.000139352
6 *10:10 *185:44 0.00016252
*RES
1 *2392:X *10:10 42.6296 
2 *10:10 seg[1] 8.84373 
*END

*D_NET *11 0.000657496
*CONN
*P seg[2] O
*I *2393:X O *D sky130_fd_sc_hd__buf_1
*CAP
1 seg[2] 0.000318195
2 *2393:X 0.000318195
3 seg[2] *221:16 2.11066e-05
*RES
1 *2393:X seg[2] 49.5673 
*END

*D_NET *12 0.000759552
*CONN
*P seg[3] O
*I *2394:X O *D sky130_fd_sc_hd__buf_1
*CAP
1 seg[3] 0.000367635
2 *2394:X 0.000367635
3 seg[3] *220:8 2.42807e-05
*RES
1 *2394:X seg[3] 47.0789 
*END

*D_NET *13 0.000688923
*CONN
*P seg[4] O
*I *2395:X O *D sky130_fd_sc_hd__buf_1
*CAP
1 seg[4] 0.000333908
2 *2395:X 0.000333908
3 seg[4] *221:16 2.11066e-05
*RES
1 *2395:X seg[4] 49.5673 
*END

*D_NET *14 0.000764949
*CONN
*P seg[5] O
*I *2396:X O *D sky130_fd_sc_hd__buf_1
*CAP
1 seg[5] 0.000382475
2 *2396:X 0.000382475
*RES
1 *2396:X seg[5] 47.0789 
*END

*D_NET *15 0.0017559
*CONN
*P seg[6] O
*I *2397:X O *D sky130_fd_sc_hd__buf_1
*CAP
1 seg[6] 0.000321295
2 *2397:X 0.000454799
3 *15:10 0.000776094
4 *15:10 *620:DIODE 0.000146822
5 *15:10 *2397:A 5.68958e-05
*RES
1 *2397:X *15:10 47.8911 
2 *15:10 seg[6] 9.1872 
*END

*D_NET *16 0.011582
*CONN
*I *2373:D I *D sky130_fd_sc_hd__dfrtp_4
*I *2285:Y O *D sky130_fd_sc_hd__a21oi_1
*CAP
1 *2373:D 0.000105673
2 *2285:Y 0
3 *16:16 0.000265295
4 *16:8 0.00221509
5 *16:6 0.00205547
6 *2373:D *2373:CLK 5.3304e-05
7 *2373:D *219:26 7.25499e-05
8 *16:8 *36:26 0.000366587
9 *16:8 *103:14 0.00311761
10 *16:8 *156:65 0.000213124
11 *16:8 *156:71 0.000244876
12 *16:8 *171:116 0.000142111
13 *16:8 *175:10 5.71002e-06
14 *16:8 *183:12 2.97113e-05
15 *16:8 *183:150 0.000619153
16 *16:8 *191:129 0.000212621
17 *16:8 *192:84 0.000415794
18 *16:8 *196:14 0
19 *16:8 *199:132 0.000262369
20 *16:8 *203:66 0.000142688
21 *16:16 *53:12 8.62783e-05
22 *16:16 *180:20 8.4047e-05
23 *16:16 *198:12 0.00043511
24 *16:16 *219:26 0.000436805
*RES
1 *2285:Y *16:6 38 
2 *16:6 *16:8 56.4879 
3 *16:8 *16:16 36.1107 
4 *16:16 *2373:D 40.0507 
*END

*D_NET *17 0.0232815
*CONN
*I *607:DIODE I *D sky130_fd_sc_hd__diode_2
*I *2374:D I *D sky130_fd_sc_hd__dfrtp_4
*I *2286:X O *D sky130_fd_sc_hd__xor2_2
*CAP
1 *607:DIODE 0.000126469
2 *2374:D 0.000171955
3 *2286:X 0
4 *17:28 0.000384368
5 *17:24 0.00140091
6 *17:22 0.0033462
7 *17:8 0.00415682
8 *17:6 0.00212559
9 *607:DIODE *214:22 0.000135037
10 *2374:D *132:18 1.82504e-05
11 *2374:D *143:24 2.64616e-05
12 *2374:D *156:77 0.000214259
13 *2374:D *178:10 6.5117e-06
14 *2374:D *178:34 5.5792e-05
15 *2374:D *178:48 7.01044e-06
16 *2374:D *205:58 0.000314495
17 *17:8 *116:78 0
18 *17:8 *140:14 0.000579856
19 *17:8 *141:36 0.000113398
20 *17:8 *147:24 0
21 *17:8 *148:12 0
22 *17:8 *152:44 0.00118956
23 *17:8 *153:61 0.00126238
24 *17:8 *187:68 0
25 *17:8 *201:22 0.000582627
26 *17:22 *2371:D 3.60531e-05
27 *17:22 *18:8 5.45541e-05
28 *17:22 *147:24 0
29 *17:22 *165:16 0.000223077
30 *17:22 *167:38 0.000158098
31 *17:22 *167:44 0.000116368
32 *17:22 *174:18 0.00032247
33 *17:22 *174:24 0.000330988
34 *17:22 *179:146 0.000350075
35 *17:22 *201:22 0.000119943
36 *17:24 *265:DIODE 0.000137525
37 *17:24 *266:DIODE 5.3304e-05
38 *17:24 *20:10 0.00243323
39 *17:24 *39:8 0.000681585
40 *17:24 *174:16 9.66585e-05
41 *17:24 *174:18 0.000728263
42 *17:24 *189:24 0.000910794
43 *17:28 *2273:A1 8.57485e-05
44 *17:28 *132:18 4.70975e-05
45 *17:28 *205:58 0.000177673
*RES
1 *2286:X *17:6 38 
2 *17:6 *17:8 56.2911 
3 *17:8 *17:22 49.8311 
4 *17:22 *17:24 36.3536 
5 *17:24 *17:28 17.61 
6 *17:28 *2374:D 42.9921 
7 *17:28 *607:DIODE 39.5743 
*END

*D_NET *18 0.0149441
*CONN
*I *2375:D I *D sky130_fd_sc_hd__dfrtp_4
*I *609:DIODE I *D sky130_fd_sc_hd__diode_2
*I *2290:X O *D sky130_fd_sc_hd__buf_1
*CAP
1 *2375:D 0.000643444
2 *609:DIODE 0
3 *2290:X 7.80726e-05
4 *18:14 0.000838299
5 *18:10 0.00486897
6 *18:8 0.00475219
7 *2375:D *2375:RESET_B 0.00011672
8 *2375:D *49:14 6.17437e-06
9 *2375:D *181:8 2.93845e-05
10 *18:10 *25:10 6.35755e-05
11 *18:10 *74:10 0.00146748
12 *18:10 *115:12 0
13 *18:10 *116:72 0
14 *18:10 *176:82 0
15 *18:10 *176:102 0
16 *18:10 *181:10 0
17 *18:10 *181:133 8.65972e-05
18 *18:10 *184:26 0
19 *18:10 *185:114 0.000203075
20 *18:10 *188:12 0
21 *18:10 *188:110 6.75596e-05
22 *18:10 *193:72 0
23 *18:10 *204:120 0.000165593
24 *18:10 *209:75 4.95928e-05
25 *18:10 *212:118 5.055e-05
26 *18:10 *213:58 0.00123727
27 *18:10 *214:38 0.000145267
28 *18:10 *214:53 1.9731e-05
29 *17:22 *18:8 5.45541e-05
*RES
1 *2290:X *18:8 39.0979 
2 *18:8 *18:10 94.1671 
3 *18:10 *18:14 17.5271 
4 *18:14 *609:DIODE 23 
5 *18:14 *2375:D 35.7807 
*END

*D_NET *19 0.0195788
*CONN
*I *2376:D I *D sky130_fd_sc_hd__dfrtp_4
*I *2291:Y O *D sky130_fd_sc_hd__xnor2_1
*CAP
1 *2376:D 0
2 *2291:Y 0.00151075
3 *19:22 0.00191614
4 *19:10 0.00318694
5 *19:8 0.00127081
6 *19:6 0.00151075
7 *19:6 *2291:A 0.000222785
8 *19:6 *182:136 0.00175858
9 *19:10 *234:DIODE 0.000128501
10 *19:10 *56:18 0.000443377
11 *19:10 *93:10 0.000149096
12 *19:10 *149:30 0.000296342
13 *19:10 *191:50 0.000660762
14 *19:10 *193:22 2.05503e-05
15 *19:10 *197:66 0.000208199
16 *19:10 *198:68 0.00181441
17 *19:10 *210:10 0.00128794
18 *19:22 *2376:CLK 8.29713e-05
19 *19:22 *2376:RESET_B 0.00126273
20 *19:22 *107:14 0.00148832
21 *19:22 *130:46 0.000182213
22 *19:22 *178:52 9.65021e-05
23 *19:22 *221:12 8.0155e-05
*RES
1 *2291:Y *19:6 45.0607 
2 *19:6 *19:8 15 
3 *19:8 *19:10 39.585 
4 *19:10 *19:22 48.1014 
5 *19:22 *2376:D 23 
*END

*D_NET *20 0.00714449
*CONN
*I *2341:D I *D sky130_fd_sc_hd__dfrtp_4
*I *2191:X O *D sky130_fd_sc_hd__clkbuf_1
*CAP
1 *2341:D 0
2 *2191:X 0
3 *20:10 0.00213499
4 *20:4 0.00213499
5 *20:10 *134:65 3.55458e-05
6 *20:10 *166:66 0.000237325
7 *20:10 *183:24 5.79438e-05
8 *20:10 *190:44 0.000110469
9 *17:24 *20:10 0.00243323
*RES
1 *2191:X *20:4 23 
2 *20:4 *20:10 46.6721 
3 *20:10 *2341:D 38 
*END

*D_NET *21 0.0238541
*CONN
*I *2351:D I *D sky130_fd_sc_hd__dfrtp_4
*I *565:DIODE I *D sky130_fd_sc_hd__diode_2
*I *2224:X O *D sky130_fd_sc_hd__xor2_2
*CAP
1 *2351:D 0
2 *565:DIODE 0.000108941
3 *2224:X 3.34196e-05
4 *21:36 0.000205014
5 *21:32 0.000575595
6 *21:24 0.00374184
7 *21:22 0.00326231
8 *21:20 0.00125929
9 *21:8 0.00129271
10 *565:DIODE *59:10 0.000115216
11 *565:DIODE *172:188 0.000112087
12 *21:8 *71:18 2.05505e-05
13 *21:20 *273:DIODE 5.58003e-05
14 *21:20 *2197:B 8.75254e-05
15 *21:20 *2197:C 3.81192e-05
16 *21:20 *2197:D 7.67664e-05
17 *21:20 *2224:B 0.000149361
18 *21:20 *2265:A 2.02872e-05
19 *21:20 *2265:B 0.000117885
20 *21:20 *36:14 0.000234534
21 *21:20 *119:44 0.000368385
22 *21:24 *2346:RESET_B 0.000312098
23 *21:24 *55:12 0
24 *21:24 *64:10 0.000558477
25 *21:24 *94:18 0.000771942
26 *21:24 *94:24 0.0023099
27 *21:24 *94:41 0
28 *21:24 *106:51 0.000135839
29 *21:24 *138:26 0.000249132
30 *21:24 *157:31 0
31 *21:24 *159:18 0.00158898
32 *21:24 *159:24 0.00102571
33 *21:24 *171:82 0.000338744
34 *21:24 *171:92 0.000123161
35 *21:24 *172:206 0.000102395
36 *21:24 *172:208 7.59949e-05
37 *21:24 *172:214 0.000604456
38 *21:24 *176:17 0.000192087
39 *21:24 *176:52 0.000514089
40 *21:24 *199:142 0.000271392
41 *21:24 *202:24 0.000897284
42 *21:24 *212:12 0.000506449
43 *21:24 *212:20 0.000273078
44 *21:32 *94:16 0
45 *21:32 *94:18 0
46 *21:32 *95:18 0.000253713
47 *21:32 *184:16 8.89573e-05
48 *21:32 *201:71 7.51785e-05
49 *21:36 *59:10 7.71928e-05
50 *21:36 *172:188 0.000135364
51 *21:36 *176:129 3.42398e-05
52 *7:17 *21:24 0.000462596
*RES
1 *2224:X *21:8 38.8493 
2 *21:8 *21:20 36.9157 
3 *21:20 *21:22 15 
4 *21:22 *21:24 93.1107 
5 *21:24 *21:32 37.6229 
6 *21:32 *21:36 18.0036 
7 *21:36 *565:DIODE 25.5271 
8 *21:36 *2351:D 23 
*END

*D_NET *22 0.00294
*CONN
*I *2352:D I *D sky130_fd_sc_hd__dfrtp_4
*I *2228:X O *D sky130_fd_sc_hd__clkbuf_1
*CAP
1 *2352:D 0.000396547
2 *2228:X 0.000327421
3 *22:8 0.000723968
4 *2352:D *566:DIODE 9.62666e-05
5 *2352:D *76:6 1.41077e-05
6 *2352:D *151:121 0.000233367
7 *2352:D *180:156 0.000371938
8 *2352:D *180:169 4.65096e-05
9 *22:8 *163:10 0.000158796
10 *22:8 *204:30 0.000571081
*RES
1 *2228:X *22:8 45.8921 
2 *22:8 *2352:D 47.1971 
*END

*D_NET *23 0.0104527
*CONN
*I *2353:D I *D sky130_fd_sc_hd__dfrtp_4
*I *2229:Y O *D sky130_fd_sc_hd__xnor2_1
*CAP
1 *2353:D 0.000395016
2 *2229:Y 0.000131358
3 *23:20 0.000923356
4 *23:14 0.00267778
5 *23:10 0.0022808
6 *2353:D *2353:CLK 0.000227145
7 *2353:D *186:96 2.98806e-05
8 *23:10 *41:24 8.4047e-05
9 *23:10 *57:6 9.41704e-05
10 *23:10 *186:100 8.62876e-05
11 *23:10 *186:113 1.14452e-05
12 *23:14 *474:DIODE 0.000181125
13 *23:14 *47:14 0.00111
14 *23:14 *119:8 0.000135037
15 *23:20 *2281:A 0
16 *23:20 *2353:CLK 1.55261e-05
17 *23:20 *39:32 0
18 *23:20 *44:10 0.00102505
19 *23:20 *119:24 0.000371972
20 *23:20 *160:12 1.87151e-05
21 *23:20 *180:94 0.000234787
22 *23:20 *208:12 0.00041918
*RES
1 *2229:Y *23:10 40.2993 
2 *23:10 *23:14 42.7779 
3 *23:14 *23:20 45.9914 
4 *23:20 *2353:D 28.4064 
*END

*D_NET *24 0.00409937
*CONN
*I *2354:D I *D sky130_fd_sc_hd__dfrtp_2
*I *2233:X O *D sky130_fd_sc_hd__o21ba_1
*CAP
1 *2354:D 0
2 *2233:X 0.00050164
3 *24:14 0.000764693
4 *24:10 0.00126633
5 *24:10 *108:22 5.74393e-05
6 *24:10 *128:14 0
7 *24:10 *200:12 0.000581376
8 *24:14 *2354:CLK 0.000141052
9 *24:14 *2354:RESET_B 6.9805e-05
10 *24:14 *26:38 0.000245523
11 *24:14 *186:96 0.00047151
*RES
1 *2233:X *24:10 48.4193 
2 *24:10 *24:14 29.9143 
3 *24:14 *2354:D 23 
*END

*D_NET *25 0.000556515
*CONN
*I *2355:D I *D sky130_fd_sc_hd__dfrtp_2
*I *2235:X O *D sky130_fd_sc_hd__o211a_1
*CAP
1 *2355:D 0
2 *2235:X 0.000204585
3 *25:10 0.000204585
4 *25:10 *176:82 3.50862e-06
5 *25:10 *176:102 3.21627e-05
6 *25:10 *188:102 1.24376e-05
7 *25:10 *211:111 2.39778e-06
8 *25:10 *212:118 3.32626e-05
9 *18:10 *25:10 6.35755e-05
*RES
1 *2235:X *25:10 41.48 
2 *25:10 *2355:D 38 
*END

*D_NET *26 0.0284724
*CONN
*I *2356:D I *D sky130_fd_sc_hd__dfrtp_4
*I *573:DIODE I *D sky130_fd_sc_hd__diode_2
*I *2236:Y O *D sky130_fd_sc_hd__xnor2_2
*CAP
1 *2356:D 0.000260332
2 *573:DIODE 8.81957e-05
3 *2236:Y 3.40427e-05
4 *26:38 0.00274122
5 *26:32 0.00243508
6 *26:26 0.000526532
7 *26:18 0.00348587
8 *26:12 0.00300173
9 *26:10 0.00179193
10 *26:8 0.00182597
11 *573:DIODE *185:30 9.41704e-05
12 *2356:D *2356:CLK 8.73233e-05
13 *2356:D *2356:RESET_B 0.000178517
14 *2356:D *109:22 0.000237543
15 *2356:D *189:10 5.97104e-05
16 *2356:D *189:14 0.000244526
17 *26:8 *2236:A 0.000189848
18 *26:8 *2236:B 0.000147656
19 *26:8 *122:31 2.19403e-05
20 *26:10 *2236:B 0
21 *26:10 *32:12 0.000114083
22 *26:10 *100:14 0
23 *26:10 *127:20 0.000122544
24 *26:10 *131:18 0
25 *26:10 *134:218 0.00045305
26 *26:10 *147:10 0.000533849
27 *26:10 *147:18 2.12195e-05
28 *26:10 *158:24 0.00120559
29 *26:10 *174:80 8.9458e-05
30 *26:10 *179:168 0
31 *26:10 *179:170 3.71611e-05
32 *26:10 *179:190 2.24151e-05
33 *26:10 *181:46 0.000161121
34 *26:10 *187:32 0.00268086
35 *26:10 *192:10 4.48835e-05
36 *26:10 *192:18 0.000639177
37 *26:10 *193:10 0
38 *26:18 *105:24 0.000380757
39 *26:18 *106:8 9.67842e-05
40 *26:18 *144:93 0.000868431
41 *26:18 *167:18 0.00072677
42 *26:18 *197:24 4.87889e-05
43 *26:26 *144:93 0.000465538
44 *26:26 *190:16 2.50756e-05
45 *26:32 *119:24 8.62783e-05
46 *26:32 *208:32 8.4047e-05
47 *26:38 *109:22 8.62876e-05
48 *26:38 *186:96 0.00169656
49 *26:38 *189:14 8.4047e-05
50 *24:14 *26:38 0.000245523
*RES
1 *2236:Y *26:8 40.0507 
2 *26:8 *26:10 56.1357 
3 *26:10 *26:12 15 
4 *26:12 *26:18 48.43 
5 *26:18 *26:26 36.235 
6 *26:26 *26:32 31.2014 
7 *26:32 *26:38 47.7907 
8 *26:38 *573:DIODE 39.0979 
9 *26:38 *2356:D 44.7943 
*END

*D_NET *27 0.0105194
*CONN
*I *2357:D I *D sky130_fd_sc_hd__dfrtp_4
*I *2240:X O *D sky130_fd_sc_hd__xor2_1
*CAP
1 *2357:D 0
2 *2240:X 0.000746648
3 *27:14 0.000554831
4 *27:10 0.00143961
5 *27:6 0.00163142
6 *27:6 *143:12 0.000517078
7 *27:6 *143:14 0.000361232
8 *27:10 *75:32 0.000562581
9 *27:10 *99:21 0.000593329
10 *27:10 *122:37 0.000168139
11 *27:10 *149:10 0.00200794
12 *27:14 *2357:RESET_B 0.00125507
13 *27:14 *70:16 0.000175903
14 *27:14 *172:58 9.05171e-05
15 *27:14 *174:156 0.000135037
16 *27:14 *174:165 6.53382e-05
17 *27:14 *201:65 0.000214685
*RES
1 *2240:X *27:6 37.9143 
2 *27:6 *27:10 42.6121 
3 *27:10 *27:14 29.4379 
4 *27:14 *2357:D 23 
*END

*D_NET *28 0.0339922
*CONN
*I *577:DIODE I *D sky130_fd_sc_hd__diode_2
*I *2358:D I *D sky130_fd_sc_hd__dfrtp_4
*I *2243:Y O *D sky130_fd_sc_hd__nor2_2
*CAP
1 *577:DIODE 0
2 *2358:D 0
3 *2243:Y 0.000128662
4 *28:40 0.000405262
5 *28:28 0.00126313
6 *28:20 0.00992691
7 *28:12 0.00919771
8 *28:12 *136:50 0.000156261
9 *28:12 *170:34 0
10 *28:20 *31:14 0.00568073
11 *28:20 *56:16 0.000199536
12 *28:20 *66:22 0.00171051
13 *28:20 *67:16 0
14 *28:20 *67:26 0.000253166
15 *28:20 *77:10 0.000667332
16 *28:20 *109:22 0.000520527
17 *28:20 *109:28 0.000141646
18 *28:20 *126:10 0.000400289
19 *28:20 *170:92 0.000904408
20 *28:20 *185:28 0.000333176
21 *28:20 *186:117 0.000156123
22 *28:20 *189:14 0.000173206
23 *28:28 *2235:B1 0.000109407
24 *28:28 *112:12 0.000223698
25 *28:28 *131:44 0.000762094
26 *28:28 *169:22 0
27 *28:28 *169:202 0
28 *28:28 *181:10 0.000132836
29 *28:28 *211:111 1.142e-05
30 *28:28 *212:104 0.000110258
31 *28:40 *112:12 0.000351513
32 *28:40 *185:114 4.70953e-05
33 *28:40 *193:72 2.5343e-05
*RES
1 *2243:Y *28:12 48.1807 
2 *28:12 *28:20 44.5507 
3 *28:20 *28:28 41.3425 
4 *28:28 *28:40 36.525 
5 *28:40 *2358:D 23 
6 *28:28 *577:DIODE 23 
*END

*D_NET *29 0.0120797
*CONN
*I *2359:D I *D sky130_fd_sc_hd__dfrtp_4
*I *2247:X O *D sky130_fd_sc_hd__buf_1
*CAP
1 *2359:D 0.000325854
2 *2247:X 0.000774728
3 *29:10 0.00274861
4 *29:8 0.00319749
5 *2359:D *2234:A 9.41704e-05
6 *2359:D *2269:A 5.3304e-05
7 *2359:D *2269:B 7.51453e-06
8 *2359:D *2359:CLK 8.85386e-05
9 *2359:D *116:34 6.225e-06
10 *2359:D *131:14 0.000166307
11 *2359:D *131:42 1.41129e-05
12 *2359:D *153:45 0.000854488
13 *2359:D *201:48 6.60116e-05
14 *29:8 *125:14 0.00103914
15 *29:10 *131:44 0
16 *29:10 *169:22 0
17 *29:10 *184:54 0.000879469
18 *29:10 *186:22 0.00022701
19 *29:10 *195:30 0
20 *29:10 *195:48 0.000239047
21 *29:10 *213:116 0.00129767
*RES
1 *2247:X *29:8 49.5793 
2 *29:8 *29:10 49.445 
3 *29:10 *2359:D 47.6736 
*END

*D_NET *30 0.0181455
*CONN
*I *580:DIODE I *D sky130_fd_sc_hd__diode_2
*I *2360:D I *D sky130_fd_sc_hd__dfrtp_4
*I *2252:X O *D sky130_fd_sc_hd__buf_1
*CAP
1 *580:DIODE 4.25606e-05
2 *2360:D 0.000113486
3 *2252:X 0.000577581
4 *30:18 0.000892581
5 *30:16 0.00674466
6 *30:8 0.00658571
7 *580:DIODE *183:63 5.58003e-05
8 *2360:D *2360:CLK 6.94917e-05
9 *30:8 *35:43 0.000145195
10 *30:8 *143:28 2.08682e-05
11 *30:8 *171:120 6.17437e-06
12 *30:8 *171:135 9.06073e-05
13 *30:16 *2373:RESET_B 0.000400422
14 *30:16 *42:20 1.66375e-05
15 *30:16 *71:18 0
16 *30:16 *97:24 0
17 *30:16 *136:46 0
18 *30:16 *163:60 0.00017774
19 *30:16 *171:135 0
20 *30:16 *203:44 0.000584728
21 *30:16 *218:30 0.000205754
22 *30:18 *2360:CLK 4.41821e-06
23 *30:18 *74:10 0.000481561
24 *30:18 *90:20 0.000112413
25 *30:18 *165:16 0.000225413
26 *30:18 *174:28 0.000476666
27 *30:18 *187:48 0.000115013
28 *7:17 *30:16 0
*RES
1 *2252:X *30:8 45.7679 
2 *30:8 *30:16 35.3727 
3 *30:16 *30:18 17.5761 
4 *30:18 *2360:D 40.5271 
5 *30:18 *580:DIODE 38.6214 
*END

*D_NET *31 0.0324059
*CONN
*I *2342:D I *D sky130_fd_sc_hd__dfrtp_4
*I *550:DIODE I *D sky130_fd_sc_hd__diode_2
*I *2195:X O *D sky130_fd_sc_hd__buf_1
*CAP
1 *2342:D 5.21714e-05
2 *550:DIODE 0.000179069
3 *2195:X 0
4 *31:24 0.00406369
5 *31:14 0.00920486
6 *31:6 0.00537241
7 *550:DIODE *2362:CLK 8.62783e-05
8 *550:DIODE *175:206 5.94125e-05
9 *550:DIODE *175:219 3.54739e-05
10 *550:DIODE *211:10 0.000159651
11 *550:DIODE *211:34 5.26733e-06
12 *2342:D *2342:CLK 5.3304e-05
13 *2342:D *2342:RESET_B 7.27182e-05
14 *2342:D *194:10 7.27182e-05
15 *2342:D *194:18 5.3304e-05
16 *31:14 *2358:RESET_B 0.00132586
17 *31:14 *67:16 0
18 *31:14 *115:108 2.72055e-05
19 *31:14 *138:38 0.000222802
20 *31:14 *158:22 0.00101305
21 *31:14 *191:12 0.00051066
22 *31:14 *193:48 6.6663e-06
23 *31:14 *193:72 0
24 *31:14 *214:68 0
25 *31:24 *2341:RESET_B 0
26 *31:24 *34:8 0.000530274
27 *31:24 *66:22 0.00213523
28 *31:24 *127:26 0.000121973
29 *31:24 *175:219 1.20966e-05
30 *31:24 *179:10 0.00044016
31 *31:24 *179:30 0.000158386
32 *31:24 *199:110 0.000162939
33 *31:24 *199:116 0.000267981
34 *31:24 *203:56 0.000298981
35 *31:24 *211:10 2.05503e-05
36 *8:15 *31:14 0
37 *28:20 *31:14 0.00568073
*RES
1 *2195:X *31:6 38 
2 *31:6 *31:14 48.3157 
3 *31:14 *31:24 27.7133 
4 *31:24 *550:DIODE 41.3557 
5 *31:24 *2342:D 40.0507 
*END

*D_NET *32 0.00342839
*CONN
*I *2361:D I *D sky130_fd_sc_hd__dfrtp_4
*I *2255:Y O *D sky130_fd_sc_hd__nor2_1
*CAP
1 *2361:D 0
2 *2255:Y 5.88344e-05
3 *32:12 0.000471153
4 *32:8 0.000529987
5 *32:8 *2255:B 6.17437e-06
6 *32:8 *192:26 6.17437e-06
7 *32:12 *127:20 0.000172257
8 *32:12 *147:10 0.000654946
9 *32:12 *179:190 0.00141478
10 *26:10 *32:12 0.000114083
*RES
1 *2255:Y *32:8 38.6214 
2 *32:8 *32:12 33.8086 
3 *32:12 *2361:D 23 
*END

*D_NET *33 0.0176234
*CONN
*I *2362:D I *D sky130_fd_sc_hd__dfrtp_4
*I *584:DIODE I *D sky130_fd_sc_hd__diode_2
*I *2256:X O *D sky130_fd_sc_hd__xor2_1
*CAP
1 *2362:D 0
2 *584:DIODE 0
3 *2256:X 0.000124079
4 *33:39 0.00078562
5 *33:26 0.00124742
6 *33:22 0.00148682
7 *33:16 0.00287567
8 *33:12 0.00185065
9 *33:10 0.000124079
10 *33:10 *2256:B 5.3304e-05
11 *33:10 *106:12 0.000242214
12 *33:10 *193:10 0.000244436
13 *33:16 *122:37 0.000303724
14 *33:16 *122:87 0.00185043
15 *33:16 *196:16 0.00100334
16 *33:16 *196:18 0.000310798
17 *33:16 *196:26 2.81066e-05
18 *33:22 *331:DIODE 4.57742e-05
19 *33:22 *2222:B 0.000175903
20 *33:22 *41:20 0.000176967
21 *33:22 *53:12 0.000134615
22 *33:22 *75:38 0.000990737
23 *33:22 *122:87 2.38751e-05
24 *33:22 *124:8 0.000357383
25 *33:22 *138:12 1.38134e-05
26 *33:22 *196:16 0.00148004
27 *33:22 *199:132 6.43168e-06
28 *33:22 *214:10 0.000423793
29 *33:26 *389:DIODE 0.000188927
30 *33:26 *2245:C 9.17365e-05
31 *33:26 *134:75 2.19845e-05
32 *33:26 *138:12 9.77405e-05
33 *33:26 *151:69 0.000309205
34 *33:26 *203:50 1.05235e-05
35 *33:39 *109:22 0.000249909
36 *33:39 *189:14 0.000249909
37 *33:39 *203:50 4.33845e-05
*RES
1 *2256:X *33:10 41.9357 
2 *33:10 *33:12 15 
3 *33:12 *33:16 44.3493 
4 *33:16 *33:22 45.9471 
5 *33:22 *33:26 23.7207 
6 *33:26 *584:DIODE 23 
7 *33:26 *33:39 43.4643 
8 *33:39 *2362:D 23 
*END

*D_NET *34 0.0225797
*CONN
*I *2363:D I *D sky130_fd_sc_hd__dfrtp_4
*I *587:DIODE I *D sky130_fd_sc_hd__diode_2
*I *2260:X O *D sky130_fd_sc_hd__buf_1
*CAP
1 *2363:D 0.000401436
2 *587:DIODE 0
3 *2260:X 0
4 *34:12 0.00195931
5 *34:10 0.00155787
6 *34:8 0.00280363
7 *34:6 0.00280363
8 *2363:D *2363:CLK 8.1796e-05
9 *2363:D *197:12 0.000106446
10 *34:8 *599:DIODE 0
11 *34:8 *54:12 0
12 *34:8 *57:12 0.000292874
13 *34:8 *61:10 0
14 *34:8 *66:12 6.12496e-06
15 *34:8 *66:22 0.000187693
16 *34:8 *106:68 0.000149452
17 *34:8 *171:135 0.000977685
18 *34:8 *179:10 0.00417698
19 *34:8 *179:80 0
20 *34:8 *199:110 0
21 *34:8 *199:116 0.000270697
22 *34:8 *203:44 0
23 *34:8 *203:56 0.00175112
24 *34:12 *2305:A 0.000274078
25 *34:12 *170:44 0.00342532
26 *34:12 *183:113 0.000274078
27 *34:12 *197:12 0.000375931
28 *34:12 *205:14 4.95081e-05
29 *34:12 *205:22 0.00012377
30 *31:24 *34:8 0.000530274
*RES
1 *2260:X *34:6 38 
2 *34:6 *34:8 77.9686 
3 *34:8 *34:10 15 
4 *34:10 *34:12 48.2643 
5 *34:12 *587:DIODE 23 
6 *34:12 *2363:D 29.6182 
*END

*D_NET *35 0.021104
*CONN
*I *2364:D I *D sky130_fd_sc_hd__dfrtp_2
*I *590:DIODE I *D sky130_fd_sc_hd__diode_2
*I *2261:Y O *D sky130_fd_sc_hd__xnor2_1
*CAP
1 *2364:D 0
2 *590:DIODE 0
3 *2261:Y 0.000228108
4 *35:43 0.000256136
5 *35:30 0.00069685
6 *35:22 0.00186005
7 *35:20 0.00150714
8 *35:14 0.00215724
9 *35:10 0.00229755
10 *35:10 *2261:B 5.69373e-05
11 *35:10 *147:24 0
12 *35:10 *167:48 0
13 *35:14 *2367:RESET_B 0.00139934
14 *35:14 *219:16 0.000528568
15 *35:20 *195:72 0.000107232
16 *35:22 *143:14 0.00318982
17 *35:22 *178:16 0.000530885
18 *35:22 *190:44 0.000175903
19 *35:22 *190:46 0.00268532
20 *35:22 *219:26 0.000123143
21 *35:30 *53:12 0.00046704
22 *35:30 *143:28 0.000827829
23 *35:30 *171:116 5.40357e-05
24 *35:30 *171:120 0.000529061
25 *35:30 *171:135 0.00014384
26 *35:30 *214:10 0.00046399
27 *35:43 *41:24 8.88026e-05
28 *35:43 *143:28 0.000490685
29 *35:43 *170:92 5.1098e-05
30 *35:43 *171:135 4.21921e-05
31 *30:8 *35:43 0.000145195
*RES
1 *2261:Y *35:10 42.06 
2 *35:10 *35:14 44.2071 
3 *35:14 *35:20 31.5536 
4 *35:20 *35:22 44.4529 
5 *35:22 *35:30 45.6807 
6 *35:30 *590:DIODE 23 
7 *35:30 *35:43 37.9957 
8 *35:43 *2364:D 23 
*END

*D_NET *36 0.020523
*CONN
*I *2365:D I *D sky130_fd_sc_hd__dfrtp_4
*I *593:DIODE I *D sky130_fd_sc_hd__diode_2
*I *2265:X O *D sky130_fd_sc_hd__xor2_1
*CAP
1 *2365:D 0.000201813
2 *593:DIODE 0
3 *2265:X 0.000455829
4 *36:30 0.000231335
5 *36:26 0.00787879
6 *36:14 0.00830509
7 *2365:D *103:34 0.00010019
8 *2365:D *161:8 0.000137651
9 *2365:D *177:126 6.53382e-05
10 *2365:D *177:136 6.17437e-06
11 *2365:D *179:54 0.000119159
12 *2365:D *180:134 8.68016e-06
13 *36:14 *2265:B 0.000452152
14 *36:14 *51:14 1.09162e-05
15 *36:14 *107:10 0
16 *36:14 *151:96 8.52887e-05
17 *36:14 *164:14 0.000185528
18 *36:26 *40:18 0
19 *36:26 *42:20 0.000574533
20 *36:26 *103:14 0.00053024
21 *36:26 *136:46 0
22 *36:26 *141:68 1.29843e-05
23 *36:26 *178:74 0.000125612
24 *36:26 *181:166 0.000112245
25 *36:26 *182:113 0.000101418
26 *36:26 *192:92 0.000178742
27 *36:30 *103:34 2.04508e-05
28 *36:30 *155:14 3.35885e-06
29 *36:30 *180:134 1.83667e-05
30 *16:8 *36:26 0.000366587
31 *21:20 *36:14 0.000234534
*RES
1 *2265:X *36:14 47.5596 
2 *36:14 *36:26 42.2336 
3 *36:26 *36:30 8.67321 
4 *36:30 *593:DIODE 38 
5 *36:30 *2365:D 42.5986 
*END

*D_NET *37 0.0201546
*CONN
*I *2366:D I *D sky130_fd_sc_hd__dfrtp_2
*I *595:DIODE I *D sky130_fd_sc_hd__diode_2
*I *2268:Y O *D sky130_fd_sc_hd__nor2_1
*CAP
1 *2366:D 0
2 *595:DIODE 0
3 *2268:Y 0
4 *37:29 0.000297141
5 *37:16 0.0012909
6 *37:12 0.00438846
7 *37:10 0.00402774
8 *37:6 0.000633046
9 *37:10 *114:10 0.00064241
10 *37:12 *538:DIODE 0.000274234
11 *37:12 *2202:A 8.75163e-05
12 *37:12 *2202:B 5.3304e-05
13 *37:12 *46:8 0.000687646
14 *37:12 *63:6 0.00142007
15 *37:12 *106:62 0.00180194
16 *37:12 *152:36 0.00254768
17 *37:12 *200:48 8.48502e-06
18 *37:12 *209:43 0.000341491
19 *37:16 *103:18 0.000999756
20 *37:16 *106:62 0.00012942
21 *37:29 *103:18 0.000211718
22 *37:29 *106:68 5.26713e-05
23 *37:29 *106:88 1.37712e-05
24 *37:29 *179:30 0.000245174
*RES
1 *2268:Y *37:6 38 
2 *37:6 *37:10 31.6957 
3 *37:10 *37:12 71.6093 
4 *37:12 *37:16 14.4586 
5 *37:16 *595:DIODE 23 
6 *37:16 *37:29 35.8414 
7 *37:29 *2366:D 23 
*END

*D_NET *38 0.00773895
*CONN
*I *2367:D I *D sky130_fd_sc_hd__dfrtp_2
*I *2269:X O *D sky130_fd_sc_hd__xor2_1
*CAP
1 *2367:D 0.000666605
2 *2269:X 0
3 *38:10 0.00207549
4 *38:6 0.00140889
5 *2367:D *2367:RESET_B 0.000517373
6 *2367:D *174:72 0.000554118
7 *2367:D *174:80 9.4713e-05
8 *2367:D *219:16 0.000645408
9 *38:10 *116:34 5.58975e-06
10 *38:10 *130:60 0.000110922
11 *38:10 *186:36 4.75365e-05
12 *38:10 *188:30 0.00100692
13 *38:10 *188:34 0.00010777
14 *38:10 *196:44 0.000497611
*RES
1 *2269:X *38:6 38 
2 *38:6 *38:10 42.6121 
3 *38:10 *2367:D 41.2493 
*END

*D_NET *39 0.0119594
*CONN
*I *2368:D I *D sky130_fd_sc_hd__dfrtp_1
*I *2273:X O *D sky130_fd_sc_hd__o21ba_1
*CAP
1 *2368:D 3.48878e-05
2 *2273:X 0.000359784
3 *39:32 0.00132585
4 *39:24 0.00204292
5 *39:8 0.00111174
6 *2368:D *199:88 1.83408e-05
7 *39:8 *189:24 0.000843717
8 *39:24 *313:DIODE 3.3746e-05
9 *39:24 *80:14 4.6318e-06
10 *39:24 *113:18 0.000107563
11 *39:24 *173:45 0.000136785
12 *39:24 *174:181 0.000261646
13 *39:24 *175:33 0.000260362
14 *39:24 *194:32 0.00011953
15 *39:24 *202:62 0.000221707
16 *39:24 *213:182 0.000540154
17 *39:32 *2281:A 0.000104918
18 *39:32 *2353:CLK 3.77538e-05
19 *39:32 *89:8 0.00145378
20 *39:32 *107:10 0.00067346
21 *39:32 *124:22 7.51095e-05
22 *39:32 *141:58 7.78478e-05
23 *39:32 *160:12 0.000314324
24 *39:32 *173:12 2.26497e-05
25 *39:32 *173:52 0.000225511
26 *39:32 *192:69 0.000388596
27 *39:32 *207:29 0.000480473
28 *17:24 *39:8 0.000681585
29 *23:20 *39:32 0
*RES
1 *2273:X *39:8 47.6736 
2 *39:8 *39:24 47.9386 
3 *39:24 *39:32 49.7171 
4 *39:32 *2368:D 23.6214 
*END

*D_NET *40 0.0180989
*CONN
*I *2369:D I *D sky130_fd_sc_hd__dfrtp_4
*I *2276:Y O *D sky130_fd_sc_hd__nor2_1
*CAP
1 *2369:D 0
2 *2276:Y 0.000611863
3 *40:18 0.00648995
4 *40:6 0.00710181
5 *40:6 *2178:A 0.000277805
6 *40:6 *2276:B 0.000100477
7 *40:6 *2360:RESET_B 5.3304e-05
8 *40:6 *2363:RESET_B 0.000316273
9 *40:6 *90:10 0.000411953
10 *40:6 *179:112 0.00124306
11 *40:6 *189:70 5.5792e-05
12 *40:6 *194:75 1.73995e-05
13 *40:18 *2350:CLK 0.00012144
14 *40:18 *2350:RESET_B 0.000103623
15 *40:18 *2360:RESET_B 2.23467e-05
16 *40:18 *51:22 0.000170252
17 *40:18 *170:34 2.33476e-05
18 *40:18 *171:92 0.000100139
19 *40:18 *179:104 0.000237316
20 *40:18 *183:63 0.000168997
21 *40:18 *194:73 0.000107369
22 *40:18 *194:75 0.000219889
23 *40:18 *205:28 0.000144449
24 *36:26 *40:18 0
*RES
1 *2276:Y *40:6 41.7257 
2 *40:6 *40:18 43.8912 
3 *40:18 *2369:D 38 
*END

*D_NET *41 0.0258665
*CONN
*I *2370:D I *D sky130_fd_sc_hd__dfrtp_4
*I *601:DIODE I *D sky130_fd_sc_hd__diode_2
*I *2278:X O *D sky130_fd_sc_hd__o21a_1
*CAP
1 *2370:D 0.000365691
2 *601:DIODE 0
3 *2278:X 0.000399697
4 *41:28 0.00171264
5 *41:24 0.00350338
6 *41:22 0.00215643
7 *41:20 0.00199277
8 *41:8 0.00239247
9 *2370:D *177:170 0
10 *2370:D *204:6 0.000222305
11 *41:8 *151:94 0.000329147
12 *41:8 *190:88 0.000242798
13 *41:8 *213:12 5.37416e-05
14 *41:20 *331:DIODE 0.000125213
15 *41:20 *2364:CLK 4.57455e-05
16 *41:20 *2364:RESET_B 0.000105453
17 *41:20 *75:38 6.57815e-06
18 *41:20 *122:87 0.000638486
19 *41:20 *169:108 0.000445578
20 *41:20 *169:125 4.21048e-05
21 *41:24 *47:10 0.00321514
22 *41:24 *65:12 0
23 *41:24 *65:14 0.000280028
24 *41:24 *66:22 0.000705905
25 *41:24 *110:10 0.00475575
26 *41:24 *170:92 0
27 *41:24 *179:10 0
28 *41:24 *186:100 2.13834e-05
29 *41:24 *186:113 2.3529e-05
30 *41:24 *200:72 0.00053822
31 *41:28 *65:12 0.000471826
32 *41:28 *110:10 0.000724637
33 *41:28 *177:170 0
34 *23:10 *41:24 8.4047e-05
35 *33:22 *41:20 0.000176967
36 *35:43 *41:24 8.88026e-05
*RES
1 *2278:X *41:8 47.6529 
2 *41:8 *41:20 45.015 
3 *41:20 *41:22 15 
4 *41:22 *41:24 74.095 
5 *41:24 *41:28 31.0507 
6 *41:28 *601:DIODE 38 
7 *41:28 *2370:D 44.2402 
*END

*D_NET *42 0.0187852
*CONN
*I *552:DIODE I *D sky130_fd_sc_hd__diode_2
*I *2343:D I *D sky130_fd_sc_hd__dfrtp_4
*I *2196:Y O *D sky130_fd_sc_hd__xnor2_1
*CAP
1 *552:DIODE 6.00369e-05
2 *2343:D 0
3 *2196:Y 0.00030628
4 *42:26 7.7469e-05
5 *42:20 0.00786058
6 *42:8 0.00814942
7 *552:DIODE *2343:CLK 0.000146197
8 *552:DIODE *2343:RESET_B 0.000274018
9 *552:DIODE *220:32 1.03955e-05
10 *552:DIODE *220:38 5.12254e-05
11 *42:8 *2196:B 0
12 *42:8 *103:34 0
13 *42:20 *75:38 0.00014977
14 *42:20 *136:46 3.39797e-05
15 *42:20 *161:10 0.000295562
16 *42:20 *177:12 0.000153742
17 *42:20 *183:150 0.000180981
18 *42:20 *196:14 0.000128671
19 *42:20 *199:132 0.000111789
20 *42:20 *216:10 0.000174538
21 *42:26 *180:20 8.22421e-06
22 *42:26 *214:10 2.11157e-05
23 *30:16 *42:20 1.66375e-05
24 *36:26 *42:20 0.000574533
*RES
1 *2196:Y *42:8 43.2511 
2 *42:8 *42:20 43.7195 
3 *42:20 *42:26 23.3211 
4 *42:26 *2343:D 23 
5 *42:26 *552:DIODE 26.0036 
*END

*D_NET *43 0.00274427
*CONN
*I *2371:D I *D sky130_fd_sc_hd__dfrtp_2
*I *2279:Y O *D sky130_fd_sc_hd__xnor2_1
*CAP
1 *2371:D 0.00049489
2 *2279:Y 0.000266625
3 *43:10 0.000761515
4 *2371:D *165:16 0.000223077
5 *2371:D *174:18 6.96783e-05
6 *2371:D *174:24 0.000353164
7 *43:10 *2279:A 0.000142678
8 *43:10 *2279:B 6.29811e-05
9 *43:10 *74:10 8.69019e-05
10 *43:10 *206:14 4.08664e-05
11 *43:10 *214:38 7.3206e-05
12 *43:10 *219:16 0.000132638
13 *17:22 *2371:D 3.60531e-05
*RES
1 *2279:Y *43:10 44.7736 
2 *43:10 *2371:D 46.7207 
*END

*D_NET *44 0.00796094
*CONN
*I *2372:D I *D sky130_fd_sc_hd__dfrtp_1
*I *2281:X O *D sky130_fd_sc_hd__xor2_1
*CAP
1 *2372:D 0.000136581
2 *2281:X 4.5791e-05
3 *44:10 0.00126492
4 *44:8 0.00117413
5 *44:8 *186:96 5.50049e-05
6 *44:10 *62:8 4.62635e-05
7 *44:10 *134:169 0.00152085
8 *44:10 *160:12 4.15283e-06
9 *44:10 *163:50 0.000134658
10 *44:10 *207:29 0.00250759
11 *44:10 *208:12 4.59441e-05
12 *23:20 *44:10 0.00102505
*RES
1 *2281:X *44:8 38.6214 
2 *44:8 *44:10 36.4157 
3 *44:10 *2372:D 39.5743 
*END

*D_NET *45 0.0086913
*CONN
*I *2344:D I *D sky130_fd_sc_hd__dfrtp_2
*I *2201:X O *D sky130_fd_sc_hd__buf_1
*CAP
1 *2344:D 0
2 *2201:X 0.000142961
3 *45:14 0.00128075
4 *45:10 0.00315728
5 *45:8 0.00201949
6 *45:8 *2201:A 8.81259e-05
7 *45:8 *108:30 5.56356e-05
8 *45:10 *102:10 0
9 *45:10 *108:26 0.001824
10 *45:10 *185:44 5.31444e-05
11 *45:10 *187:8 0
12 *45:14 *177:23 6.9908e-05
*RES
1 *2201:X *45:8 40.0507 
2 *45:8 *45:10 42.05 
3 *45:10 *45:14 32.2964 
4 *45:14 *2344:D 23 
*END

*D_NET *46 0.00903148
*CONN
*I *2345:D I *D sky130_fd_sc_hd__dfrtp_4
*I *2202:X O *D sky130_fd_sc_hd__xor2_1
*CAP
1 *2345:D 0
2 *2202:X 0.000223856
3 *46:10 0.0011598
4 *46:8 0.00138366
5 *46:8 *2202:A 0.000397759
6 *46:8 *209:43 0.000302325
7 *46:10 *101:24 0.000141894
8 *46:10 *116:50 1.14452e-05
9 *46:10 *145:10 0.000188112
10 *46:10 *162:8 0.00198162
11 *46:10 *201:67 0.0024747
12 *46:10 *209:140 7.86584e-05
13 *37:12 *46:8 0.000687646
*RES
1 *2202:X *46:8 45.7679 
2 *46:8 *46:10 36.4157 
3 *46:10 *2345:D 38 
*END

*D_NET *47 0.017608
*CONN
*I *2346:D I *D sky130_fd_sc_hd__dfrtp_4
*I *2205:Y O *D sky130_fd_sc_hd__nor2_1
*CAP
1 *2346:D 0
2 *2205:Y 0.000385755
3 *47:22 0.000246725
4 *47:14 0.0014021
5 *47:12 0.00115538
6 *47:10 0.00127966
7 *47:8 0.00166541
8 *47:8 *2205:B 0.000189848
9 *47:8 *109:46 0.000535892
10 *47:8 *110:14 4.57761e-05
11 *47:8 *189:20 0.000167856
12 *47:10 *52:10 0.000477741
13 *47:10 *65:14 8.70569e-05
14 *47:10 *66:22 0.000521601
15 *47:10 *179:10 0
16 *47:10 *186:100 0.00104051
17 *47:14 *474:DIODE 0.000178517
18 *47:14 *119:8 0.000730283
19 *47:14 *134:109 0.000168328
20 *47:14 *148:14 0.00284028
21 *47:14 *178:93 6.97417e-05
22 *47:22 *95:18 4.02943e-05
23 *47:22 *100:99 5.41082e-05
24 *23:14 *47:14 0.00111
25 *41:24 *47:10 0.00321514
*RES
1 *2205:Y *47:8 48.15 
2 *47:8 *47:10 43.1064 
3 *47:10 *47:12 15 
4 *47:12 *47:14 35.8771 
5 *47:14 *47:22 34.3086 
6 *47:22 *2346:D 23 
*END

*D_NET *48 0.0168671
*CONN
*I *2347:D I *D sky130_fd_sc_hd__dfrtp_4
*I *2209:X O *D sky130_fd_sc_hd__buf_1
*CAP
1 *2347:D 0
2 *2209:X 0.00163211
3 *48:18 0.000708492
4 *48:10 0.00316245
5 *48:8 0.00408607
6 *48:8 *2242:A 5.50106e-05
7 *48:8 *2242:C 0.000221084
8 *48:8 *113:32 0.00043515
9 *48:8 *169:40 0.00010376
10 *48:8 *204:112 0.000137361
11 *48:8 *204:120 0.000178235
12 *48:10 *548:DIODE 8.17328e-05
13 *48:10 *2339:A 0.000178517
14 *48:10 *73:18 0.00114921
15 *48:10 *169:40 9.02427e-05
16 *48:10 *174:173 0.000302817
17 *48:10 *190:114 0.000385463
18 *48:10 *196:10 0.000827183
19 *48:10 *211:38 0.00156349
20 *48:10 *211:48 0.000178517
21 *48:18 *2347:CLK 7.4416e-05
22 *48:18 *113:18 0.000892482
23 *48:18 *200:12 0.000423277
*RES
1 *2209:X *48:8 44.605 
2 *48:8 *48:10 49.6936 
3 *48:10 *48:18 45.9293 
4 *48:18 *2347:D 23 
*END

*D_NET *49 0.0111575
*CONN
*I *2348:D I *D sky130_fd_sc_hd__dfrtp_2
*I *2213:Y O *D sky130_fd_sc_hd__a21oi_1
*CAP
1 *2348:D 0
2 *2213:Y 0
3 *49:14 0.0019819
4 *49:8 0.0028754
5 *49:4 0.000893502
6 *49:8 *2195:A 0.000272377
7 *49:8 *2213:B1 6.65175e-05
8 *49:8 *116:84 0.000447436
9 *49:8 *118:20 0.000371681
10 *49:8 *118:24 0.00153327
11 *49:8 *137:6 0.00221844
12 *49:14 *608:DIODE 7.24484e-05
13 *49:14 *2310:A 2.30292e-05
14 *49:14 *2338:A 5.14746e-06
15 *49:14 *2348:CLK 7.6592e-05
16 *49:14 *2375:CLK 3.71251e-05
17 *49:14 *2375:RESET_B 0.000135753
18 *49:14 *106:130 0.000131846
19 *49:14 *178:97 0
20 *49:14 *212:8 8.85299e-06
21 *49:14 *213:118 0
22 *49:14 *213:144 0
23 *2375:D *49:14 6.17437e-06
*RES
1 *2213:Y *49:4 23 
2 *49:4 *49:8 49.4479 
3 *49:8 *49:14 45.393 
4 *49:14 *2348:D 23 
*END

*D_NET *50 0.0054519
*CONN
*I *2349:D I *D sky130_fd_sc_hd__dfrtp_4
*I *2215:Y O *D sky130_fd_sc_hd__a21oi_1
*CAP
1 *2349:D 0
2 *2215:Y 0
3 *50:12 0.00106811
4 *50:6 0.00106811
5 *50:12 *2349:CLK 5.50049e-05
6 *50:12 *2349:RESET_B 3.22879e-05
7 *50:12 *51:14 0
8 *50:12 *89:8 0.001113
9 *50:12 *107:10 0.00191017
10 *50:12 *124:16 0.000205222
*RES
1 *2215:Y *50:6 38 
2 *50:6 *50:12 42.5293 
3 *50:12 *2349:D 23 
*END

*D_NET *51 0.012681
*CONN
*I *2350:D I *D sky130_fd_sc_hd__dfrtp_4
*I *2223:Y O *D sky130_fd_sc_hd__nor2_1
*CAP
1 *2350:D 0
2 *2223:Y 4.11105e-05
3 *51:22 0.000278353
4 *51:14 0.00216675
5 *51:12 0.00302352
6 *51:8 0.00117624
7 *51:8 *119:24 8.17328e-05
8 *51:8 *119:26 1.24376e-05
9 *51:8 *159:6 9.41704e-05
10 *51:12 *89:8 6.92266e-05
11 *51:12 *95:20 0
12 *51:12 *124:16 7.34511e-05
13 *51:12 *172:58 0
14 *51:12 *174:173 0.000558294
15 *51:12 *190:16 0.000506578
16 *51:12 *213:190 0.000206171
17 *51:14 *2380:A 2.39807e-05
18 *51:14 *95:20 0.000885514
19 *51:14 *96:34 1.32646e-05
20 *51:14 *107:10 0
21 *51:14 *124:16 0
22 *51:14 *164:22 0.000600666
23 *51:14 *171:86 0
24 *51:14 *171:92 0
25 *51:14 *210:101 0
26 *51:14 *212:32 0.000708892
27 *51:14 *219:22 0.000160191
28 *51:22 *2350:CLK 6.43175e-05
29 *51:22 *179:104 0.000936537
30 *51:22 *183:113 4.92229e-05
31 *51:22 *205:28 0.000769239
32 *36:14 *51:14 1.09162e-05
33 *40:18 *51:22 0.000170252
34 *50:12 *51:14 0
*RES
1 *2223:Y *51:8 39.0979 
2 *51:8 *51:12 21.2839 
3 *51:12 *51:14 37.6482 
4 *51:14 *51:22 27.6979 
5 *51:22 *2350:D 23 
*END

*D_NET *52 0.0142355
*CONN
*I *2341:RESET_B I *D sky130_fd_sc_hd__dfrtp_4
*I *2302:Y O *D sky130_fd_sc_hd__inv_2
*CAP
1 *2341:RESET_B 0.0014988
2 *2302:Y 0.0002111
3 *52:10 0.00346214
4 *52:8 0.00217444
5 *2341:RESET_B *2245:C 0.000106757
6 *2341:RESET_B *75:32 2.28437e-05
7 *2341:RESET_B *138:26 0
8 *2341:RESET_B *183:12 2.11157e-05
9 *2341:RESET_B *191:129 7.81315e-05
10 *2341:RESET_B *218:52 0.000155709
11 *52:8 *128:10 0.000264564
12 *52:10 *65:14 0.00281284
13 *52:10 *66:22 0.000854085
14 *52:10 *177:31 0.000195248
15 *52:10 *179:10 0.00136538
16 *52:10 *179:30 0.000396453
17 *52:10 *179:52 0.000138195
18 *31:24 *2341:RESET_B 0
19 *47:10 *52:10 0.000477741
*RES
1 *2302:Y *52:8 41.0036 
2 *52:8 *52:10 58.7768 
3 *52:10 *2341:RESET_B 36.4077 
*END

*D_NET *53 0.0093116
*CONN
*I *2342:RESET_B I *D sky130_fd_sc_hd__dfrtp_4
*I *2303:Y O *D sky130_fd_sc_hd__inv_2
*CAP
1 *2342:RESET_B 0.00111189
2 *2303:Y 3.44566e-05
3 *53:12 0.00194987
4 *53:8 0.000872432
5 *2342:RESET_B *2342:CLK 9.41704e-05
6 *2342:RESET_B *175:189 0.000186369
7 *2342:RESET_B *175:195 7.32045e-05
8 *2342:RESET_B *194:10 5.92321e-05
9 *2342:RESET_B *194:18 0.00162424
10 *53:8 *2303:A 0.000141675
11 *53:8 *175:84 0.000139974
12 *53:12 *138:12 0.000493535
13 *53:12 *169:102 0.00102662
14 *53:12 *169:108 9.00319e-05
15 *53:12 *169:158 0.000360706
16 *53:12 *180:20 0.000123281
17 *53:12 *214:10 0.000169269
18 *2342:D *2342:RESET_B 7.27182e-05
19 *16:16 *53:12 8.62783e-05
20 *33:22 *53:12 0.000134615
21 *35:30 *53:12 0.00046704
*RES
1 *2303:Y *53:8 39.5743 
2 *53:8 *53:12 40.1471 
3 *53:12 *2342:RESET_B 24.4118 
*END

*D_NET *54 0.00716684
*CONN
*I *2343:RESET_B I *D sky130_fd_sc_hd__dfrtp_4
*I *2304:Y O *D sky130_fd_sc_hd__inv_2
*CAP
1 *2343:RESET_B 0.00112273
2 *2304:Y 0.000938199
3 *54:12 0.00177497
4 *54:6 0.00159044
5 *2343:RESET_B *2343:CLK 9.15509e-05
6 *2343:RESET_B *220:32 0.000196901
7 *2343:RESET_B *220:38 0.000107978
8 *54:6 *2350:RESET_B 1.05235e-05
9 *54:6 *2369:CLK 4.94011e-05
10 *54:6 *2369:RESET_B 1.4269e-05
11 *54:6 *170:76 0.000528923
12 *54:6 *175:108 2.40002e-06
13 *54:12 *599:DIODE 5.29732e-06
14 *54:12 *61:10 0.000113951
15 *54:12 *80:26 9.74048e-05
16 *54:12 *109:28 0
17 *54:12 *136:50 0
18 *54:12 *179:80 0.000247881
19 *552:DIODE *2343:RESET_B 0.000274018
20 *34:8 *54:12 0
*RES
1 *2304:Y *54:6 37.4379 
2 *54:6 *54:12 44.2307 
3 *54:12 *2343:RESET_B 16.4368 
*END

*D_NET *55 0.020604
*CONN
*I *2344:RESET_B I *D sky130_fd_sc_hd__dfrtp_2
*I *554:DIODE I *D sky130_fd_sc_hd__diode_2
*I *2305:Y O *D sky130_fd_sc_hd__inv_2
*CAP
1 *2344:RESET_B 0.000134307
2 *554:DIODE 0
3 *2305:Y 9.79863e-05
4 *55:26 7.87727e-05
5 *55:20 0.00123718
6 *55:18 0.00173232
7 *55:12 0.00257832
8 *55:10 0.00196809
9 *2344:RESET_B *177:23 0.000314363
10 *2344:RESET_B *208:6 4.82056e-05
11 *55:10 *197:18 1.61386e-05
12 *55:12 *94:41 0
13 *55:12 *97:24 0.000141327
14 *55:12 *98:14 0.000278838
15 *55:12 *123:12 0.000742185
16 *55:12 *157:31 0.00052939
17 *55:12 *174:209 0.000136486
18 *55:12 *197:20 0.00363416
19 *55:18 *97:24 0.00021962
20 *55:18 *117:14 3.2905e-05
21 *55:18 *123:12 0.00122872
22 *55:18 *144:37 0.000460595
23 *55:18 *144:43 0.000111852
24 *55:18 *191:72 0.000285649
25 *55:18 *197:20 0.000233874
26 *55:20 *522:DIODE 0.000212844
27 *55:20 *171:66 0.000218471
28 *55:20 *177:23 9.67842e-05
29 *55:20 *180:94 0.00067675
30 *55:20 *181:142 0.00219763
31 *55:20 *203:78 0.000487357
32 *55:20 *206:52 0.000146487
33 *55:20 *208:6 0.00020484
34 *55:26 *115:66 1.01436e-05
35 *55:26 *154:10 6.6869e-05
36 *55:26 *161:10 2.86716e-05
37 *55:26 *177:12 1.58805e-05
38 *21:24 *55:12 0
*RES
1 *2305:Y *55:10 39.5018 
2 *55:10 *55:12 50.17 
3 *55:12 *55:18 34.3782 
4 *55:18 *55:20 30.16 
5 *55:20 *55:26 31.9057 
6 *55:26 *554:DIODE 23 
7 *55:20 *2344:RESET_B 3.90464 
*END

*D_NET *56 0.0228992
*CONN
*I *556:DIODE I *D sky130_fd_sc_hd__diode_2
*I *2345:RESET_B I *D sky130_fd_sc_hd__dfrtp_4
*I *2306:Y O *D sky130_fd_sc_hd__inv_2
*CAP
1 *556:DIODE 0.000186709
2 *2345:RESET_B 0.000358838
3 *2306:Y 0.000779587
4 *56:20 0.000545547
5 *56:18 0.00158544
6 *56:16 0.0038176
7 *56:10 0.00301176
8 *556:DIODE *116:50 0.000207853
9 *2345:RESET_B *113:26 3.58084e-06
10 *2345:RESET_B *116:34 0.000105323
11 *2345:RESET_B *116:50 0.000180224
12 *56:10 *170:127 0.00035305
13 *56:10 *184:140 0.000139354
14 *56:10 *204:18 2.65165e-06
15 *56:16 *66:22 0.00308143
16 *56:16 *67:16 0.000162013
17 *56:16 *195:130 0.000954384
18 *56:18 *87:10 0.000547518
19 *56:18 *96:46 0.00387171
20 *56:18 *182:80 1.09917e-05
21 *56:18 *191:50 0.000662928
22 *56:18 *193:22 2.26406e-05
23 *56:18 *198:68 9.8788e-06
24 *56:18 *210:10 0.00165528
25 *19:10 *56:18 0.000443377
26 *28:20 *56:16 0.000199536
*RES
1 *2306:Y *56:10 49.8382 
2 *56:10 *56:16 23.5264 
3 *56:16 *56:18 53.1425 
4 *56:18 *56:20 15 
5 *56:20 *2345:RESET_B 5.47893 
6 *56:20 *556:DIODE 25.5271 
*END

*D_NET *57 0.0121947
*CONN
*I *2346:RESET_B I *D sky130_fd_sc_hd__dfrtp_4
*I *2307:Y O *D sky130_fd_sc_hd__inv_2
*CAP
1 *2346:RESET_B 0.000224956
2 *2307:Y 0.000730179
3 *57:14 0.00335187
4 *57:12 0.00328045
5 *57:6 0.000883716
6 *2346:RESET_B *100:99 1.73638e-05
7 *2346:RESET_B *212:12 0.000314329
8 *57:6 *2229:B 0.000221084
9 *57:6 *2260:A 0.000140313
10 *57:6 *2307:A 0.000146197
11 *57:6 *170:96 0.000221997
12 *57:6 *170:208 0.000811488
13 *57:6 *186:113 0.00030867
14 *57:6 *215:20 0.000361611
15 *57:12 *106:68 7.45175e-05
16 *57:12 *148:20 0.000163361
17 *57:12 *179:10 1.22803e-05
18 *57:14 *192:61 3.06766e-05
19 *57:14 *192:76 0.00010016
20 *57:14 *192:120 0.000100328
21 *21:24 *2346:RESET_B 0.000312098
22 *23:10 *57:6 9.41704e-05
23 *34:8 *57:12 0.000292874
*RES
1 *2307:Y *57:6 42.2021 
2 *57:6 *57:12 34.3707 
3 *57:12 *57:14 35.8771 
4 *57:14 *2346:RESET_B 35.3961 
*END

*D_NET *58 0.0225497
*CONN
*I *2347:RESET_B I *D sky130_fd_sc_hd__dfrtp_4
*I *559:DIODE I *D sky130_fd_sc_hd__diode_2
*I *2308:Y O *D sky130_fd_sc_hd__inv_2
*CAP
1 *2347:RESET_B 0
2 *559:DIODE 0.000376201
3 *2308:Y 0.000203726
4 *58:26 0.000536231
5 *58:18 0.00249102
6 *58:16 0.00233099
7 *58:14 0.00263627
8 *58:12 0.00283999
9 *559:DIODE *175:219 0.00019747
10 *559:DIODE *194:18 0.000388071
11 *559:DIODE *211:10 0.000141879
12 *559:DIODE *211:60 5.55911e-05
13 *58:12 *2308:A 0.000228001
14 *58:12 *2334:A 5.50106e-05
15 *58:12 *104:22 0.000380781
16 *58:12 *170:155 1.22822e-05
17 *58:12 *171:198 0.000856193
18 *58:12 *171:211 1.72202e-05
19 *58:14 *65:6 0.000187477
20 *58:14 *104:22 0.00167952
21 *58:14 *171:211 5.50049e-05
22 *58:14 *171:226 0.000185648
23 *58:18 *2207:A 5.33601e-05
24 *58:18 *67:26 0.000249501
25 *58:18 *81:14 0.00136583
26 *58:18 *111:10 0.000391028
27 *58:18 *134:113 0.00168413
28 *58:18 *134:126 0.000209729
29 *58:18 *184:155 3.82956e-05
30 *58:18 *184:161 0.000381363
31 *58:18 *192:122 0
32 *58:18 *211:60 0.00191603
33 *58:18 *211:118 5.56306e-05
34 *58:26 *175:219 0.000101708
35 *58:26 *211:60 0.000110913
36 *58:26 *217:32 0.000137651
*RES
1 *2308:Y *58:12 34.2893 
2 *58:12 *58:14 52.5521 
3 *58:14 *58:16 15 
4 *58:16 *58:18 71.9821 
5 *58:18 *58:26 33.1279 
6 *58:26 *559:DIODE 45.0429 
7 *58:26 *2347:RESET_B 15 
*END

*D_NET *59 0.00810093
*CONN
*I *2348:RESET_B I *D sky130_fd_sc_hd__dfrtp_2
*I *2309:Y O *D sky130_fd_sc_hd__inv_2
*CAP
1 *2348:RESET_B 0
2 *2309:Y 0.00144799
3 *59:18 0.00127226
4 *59:10 0.00272025
5 *59:10 *2309:A 0.000106277
6 *59:10 *170:135 0.000328998
7 *59:10 *172:188 0.000269432
8 *59:18 *94:16 4.35681e-06
9 *59:18 *141:114 0
10 *59:18 *176:129 3.48854e-05
11 *59:18 *176:142 0.00160023
12 *59:18 *206:84 0.000123852
13 *565:DIODE *59:10 0.000115216
14 *21:36 *59:10 7.71928e-05
*RES
1 *2309:Y *59:10 48.3129 
2 *59:10 *59:18 41.9907 
3 *59:18 *2348:RESET_B 15 
*END

*D_NET *60 0.0234474
*CONN
*I *2349:RESET_B I *D sky130_fd_sc_hd__dfrtp_4
*I *562:DIODE I *D sky130_fd_sc_hd__diode_2
*I *2310:Y O *D sky130_fd_sc_hd__inv_2
*CAP
1 *2349:RESET_B 0.000396392
2 *562:DIODE 0
3 *2310:Y 0
4 *60:16 0.000840906
5 *60:12 0.00245744
6 *60:10 0.00204659
7 *60:8 0.00174428
8 *60:6 0.00171062
9 *2349:RESET_B *2349:CLK 0.000204376
10 *2349:RESET_B *213:10 9.4713e-05
11 *60:8 *118:26 0
12 *60:8 *125:12 0.00127272
13 *60:8 *170:151 0.000176061
14 *60:8 *170:173 0.000297478
15 *60:8 *195:120 0.00155936
16 *60:8 *195:156 0.000980636
17 *60:8 *202:18 0.000124078
18 *60:8 *202:86 0.00115187
19 *60:8 *212:10 0.000409157
20 *60:8 *212:12 9.56882e-05
21 *60:10 *202:18 7.65863e-06
22 *60:12 *98:14 0.00014032
23 *60:12 *117:14 4.9274e-05
24 *60:12 *121:12 0.000670465
25 *60:12 *138:26 0.00023801
26 *60:12 *159:16 0.000575739
27 *60:12 *159:18 0.000304514
28 *60:12 *159:24 0.000300661
29 *60:12 *167:26 1.00288e-05
30 *60:12 *202:18 0.00139948
31 *60:12 *212:12 0.00139431
32 *60:12 *212:14 7.29637e-05
33 *60:12 *212:20 0.00145507
34 *60:12 *213:20 8.57577e-05
35 *60:12 *217:20 0.000954321
36 *60:16 *219:22 0.000194201
37 *50:12 *2349:RESET_B 3.22879e-05
*RES
1 *2310:Y *60:6 38 
2 *60:6 *60:8 49.6211 
3 *60:8 *60:10 0.621429 
4 *60:10 *60:12 59.8332 
5 *60:12 *60:16 22.7679 
6 *60:16 *562:DIODE 23 
7 *60:16 *2349:RESET_B 8.1925 
*END

*D_NET *61 0.00370324
*CONN
*I *2350:RESET_B I *D sky130_fd_sc_hd__dfrtp_4
*I *2311:Y O *D sky130_fd_sc_hd__inv_2
*CAP
1 *2350:RESET_B 0.000578897
2 *2311:Y 0.000269343
3 *61:10 0.000848239
4 *2350:RESET_B *2350:CLK 0.000494356
5 *2350:RESET_B *175:92 0.000267098
6 *2350:RESET_B *175:108 0.000837542
7 *61:10 *599:DIODE 8.60121e-05
8 *61:10 *170:44 9.36522e-05
9 *34:8 *61:10 0
10 *40:18 *2350:RESET_B 0.000103623
11 *54:6 *2350:RESET_B 1.05235e-05
12 *54:12 *61:10 0.000113951
*RES
1 *2311:Y *61:10 43.1371 
2 *61:10 *2350:RESET_B 32.2239 
*END

*D_NET *62 0.00228865
*CONN
*I *2351:RESET_B I *D sky130_fd_sc_hd__dfrtp_4
*I *2313:Y O *D sky130_fd_sc_hd__inv_2
*CAP
1 *2351:RESET_B 8.75995e-05
2 *2313:Y 0.000489311
3 *62:8 0.000576911
4 *2351:RESET_B *95:12 9.11717e-05
5 *2351:RESET_B *172:188 9.88574e-06
6 *2351:RESET_B *176:129 0.000216154
7 *62:8 *95:12 5.72853e-05
8 *62:8 *134:169 4.38289e-05
9 *62:8 *141:114 0
10 *62:8 *184:16 0.000206394
11 *62:8 *184:114 4.89731e-05
12 *62:8 *207:14 0.000123234
13 *62:8 *207:29 0.000291637
14 *44:10 *62:8 4.62635e-05
*RES
1 *2313:Y *62:8 49.0614 
2 *62:8 *2351:RESET_B 17.4546 
*END

*D_NET *63 0.00805897
*CONN
*I *2352:RESET_B I *D sky130_fd_sc_hd__dfrtp_4
*I *2314:Y O *D sky130_fd_sc_hd__inv_2
*CAP
1 *2352:RESET_B 0.000902688
2 *2314:Y 0.00111417
3 *63:12 0.00100277
4 *63:6 0.00121425
5 *2352:RESET_B *76:6 0.00182386
6 *2352:RESET_B *172:206 9.28183e-05
7 *2352:RESET_B *185:14 0.00021677
8 *63:12 *118:26 8.65966e-05
9 *63:12 *202:86 0.000184969
10 *37:12 *63:6 0.00142007
*RES
1 *2314:Y *63:6 38.8671 
2 *63:6 *63:12 32.61 
3 *63:12 *2352:RESET_B 20.5589 
*END

*D_NET *64 0.00181688
*CONN
*I *2353:RESET_B I *D sky130_fd_sc_hd__dfrtp_4
*I *2315:Y O *D sky130_fd_sc_hd__inv_2
*CAP
1 *2353:RESET_B 0
2 *2315:Y 0.000321725
3 *64:10 0.000321725
4 *64:10 *94:18 0.000561647
5 *64:10 *181:142 5.3304e-05
6 *21:24 *64:10 0.000558477
*RES
1 *2315:Y *64:10 46.5136 
2 *64:10 *2353:RESET_B 15 
*END

*D_NET *65 0.0205856
*CONN
*I *569:DIODE I *D sky130_fd_sc_hd__diode_2
*I *2354:RESET_B I *D sky130_fd_sc_hd__dfrtp_2
*I *2316:Y O *D sky130_fd_sc_hd__inv_2
*CAP
1 *569:DIODE 0
2 *2354:RESET_B 0.000362822
3 *2316:Y 0
4 *65:18 0.000915676
5 *65:14 0.00163095
6 *65:12 0.00220536
7 *65:6 0.00389275
8 *65:4 0.00276548
9 *2354:RESET_B *2354:CLK 9.5877e-05
10 *2354:RESET_B *126:10 1.4531e-05
11 *2354:RESET_B *175:219 8.57577e-05
12 *2354:RESET_B *211:60 0.000111277
13 *65:6 *104:22 0.00163357
14 *65:6 *170:155 0.000184402
15 *65:12 *2270:A 0
16 *65:12 *106:88 0
17 *65:12 *195:130 5.55057e-05
18 *65:12 *200:106 0
19 *65:14 *66:22 0.00054541
20 *65:14 *186:100 0.0011691
21 *65:14 *186:113 5.24393e-05
22 *65:14 *200:72 0.000261588
23 *65:14 *200:106 0
24 *65:18 *161:22 0.000694041
25 *24:14 *2354:RESET_B 6.9805e-05
26 *41:24 *65:12 0
27 *41:24 *65:14 0.000280028
28 *41:28 *65:12 0.000471826
29 *47:10 *65:14 8.70569e-05
30 *52:10 *65:14 0.00281284
31 *58:14 *65:6 0.000187477
*RES
1 *2316:Y *65:4 23 
2 *65:4 *65:6 42.0707 
3 *65:6 *65:12 37.7754 
4 *65:12 *65:14 38.3525 
5 *65:14 *65:18 22.7679 
6 *65:18 *2354:RESET_B 36.3904 
7 *65:18 *569:DIODE 23 
*END

*D_NET *66 0.0312027
*CONN
*I *2355:RESET_B I *D sky130_fd_sc_hd__dfrtp_2
*I *571:DIODE I *D sky130_fd_sc_hd__diode_2
*I *2317:Y O *D sky130_fd_sc_hd__inv_2
*CAP
1 *2355:RESET_B 0.000456
2 *571:DIODE 0
3 *2317:Y 5.51184e-05
4 *66:32 0.00261327
5 *66:22 0.00887526
6 *66:12 0.00677311
7 *2355:RESET_B *176:65 0.000182051
8 *2355:RESET_B *176:74 8.58827e-05
9 *2355:RESET_B *188:8 8.22875e-05
10 *66:12 *136:46 5.31583e-05
11 *66:12 *179:80 2.26406e-05
12 *66:22 *67:16 2.50586e-05
13 *66:22 *67:26 0
14 *66:22 *171:135 0.000119802
15 *66:22 *179:10 0.000108298
16 *66:22 *186:100 0.000198724
17 *66:22 *195:130 6.96311e-05
18 *66:32 *94:16 0.00014229
19 *66:32 *94:18 7.22565e-05
20 *66:32 *176:52 0.000243239
21 *66:32 *176:63 7.22307e-05
22 *66:32 *176:65 0.00115912
23 *66:32 *176:123 4.53082e-05
24 *28:20 *66:22 0.00171051
25 *31:24 *66:22 0.00213523
26 *34:8 *66:12 6.12496e-06
27 *34:8 *66:22 0.000187693
28 *41:24 *66:22 0.000705905
29 *47:10 *66:22 0.000521601
30 *52:10 *66:22 0.000854085
31 *56:16 *66:22 0.00308143
32 *65:14 *66:22 0.00054541
*RES
1 *2317:Y *66:12 46.42 
2 *66:12 *66:22 46.3384 
3 *66:22 *66:32 46.4132 
4 *66:32 *571:DIODE 23 
5 *66:32 *2355:RESET_B 8.1925 
*END

*D_NET *67 0.0289439
*CONN
*I *574:DIODE I *D sky130_fd_sc_hd__diode_2
*I *2356:RESET_B I *D sky130_fd_sc_hd__dfrtp_4
*I *2318:Y O *D sky130_fd_sc_hd__inv_2
*CAP
1 *574:DIODE 0
2 *2356:RESET_B 0.000369478
3 *2318:Y 7.94914e-05
4 *67:26 0.00257141
5 *67:16 0.00931851
6 *67:8 0.00719607
7 *2356:RESET_B *119:133 0.000137182
8 *2356:RESET_B *126:40 0.000140958
9 *2356:RESET_B *189:10 0.000104255
10 *67:8 *171:180 5.35578e-05
11 *67:16 *2213:A1 0
12 *67:16 *90:24 0
13 *67:16 *106:140 0
14 *67:16 *114:10 0
15 *67:16 *115:112 8.85189e-05
16 *67:16 *116:78 0
17 *67:16 *140:14 0.000339069
18 *67:16 *185:124 0
19 *67:16 *195:130 0.00340826
20 *67:26 *111:10 0.000244252
21 *67:26 *119:133 0.000378759
22 *67:26 *126:40 0.000148943
23 *67:26 *134:113 0.000204508
24 *67:26 *170:100 0.00018589
25 *67:26 *184:161 0.000277831
26 *67:26 *192:120 0.000161395
27 *67:26 *192:122 0.000278062
28 *67:26 *211:60 0.000479757
29 *2356:D *2356:RESET_B 0.000178517
30 *8:15 *67:16 0.00190945
31 *28:20 *67:16 0
32 *28:20 *67:26 0.000253166
33 *31:14 *67:16 0
34 *56:16 *67:16 0.000162013
35 *58:18 *67:26 0.000249501
36 *66:22 *67:16 2.50586e-05
37 *66:22 *67:26 0
*RES
1 *2318:Y *67:8 39.0979 
2 *67:8 *67:16 48.5724 
3 *67:16 *67:26 22.9496 
4 *67:26 *2356:RESET_B 21.9082 
5 *67:26 *574:DIODE 38 
*END

*D_NET *68 0.00915513
*CONN
*I *2357:RESET_B I *D sky130_fd_sc_hd__dfrtp_4
*I *2319:Y O *D sky130_fd_sc_hd__inv_2
*CAP
1 *2357:RESET_B 0.00184498
2 *2319:Y 0.00101852
3 *68:8 0.0028635
4 *2357:RESET_B *70:16 0.000371449
5 *2357:RESET_B *174:165 9.71977e-05
6 *2357:RESET_B *217:26 0.000128818
7 *68:8 *578:DIODE 0.000140308
8 *68:8 *2239:A 5.67058e-05
9 *68:8 *70:16 0.000808198
10 *68:8 *134:218 0.000180218
11 *68:8 *153:55 0.000303724
12 *68:8 *171:16 1.95556e-05
13 *68:8 *179:168 6.68919e-05
14 *27:14 *2357:RESET_B 0.00125507
*RES
1 *2319:Y *68:8 41.7464 
2 *68:8 *2357:RESET_B 25.4889 
*END

*D_NET *69 0.0103633
*CONN
*I *2358:RESET_B I *D sky130_fd_sc_hd__dfrtp_4
*I *2320:Y O *D sky130_fd_sc_hd__inv_2
*CAP
1 *2358:RESET_B 0.000460093
2 *2320:Y 0
3 *69:6 0.00204455
4 *69:4 0.00158446
5 *2358:RESET_B *193:48 0.000804019
6 *2358:RESET_B *214:68 0.000149062
7 *69:6 *2372:RESET_B 0.000761047
8 *69:6 *125:14 0.00308738
9 *69:6 *171:238 0.000146822
10 *31:14 *2358:RESET_B 0.00132586
*RES
1 *2320:Y *69:4 23 
2 *69:4 *69:6 40.165 
3 *69:6 *2358:RESET_B 47.7521 
*END

*D_NET *70 0.0147974
*CONN
*I *2359:RESET_B I *D sky130_fd_sc_hd__dfrtp_4
*I *2321:Y O *D sky130_fd_sc_hd__inv_2
*CAP
1 *2359:RESET_B 6.62216e-05
2 *2321:Y 0.000392923
3 *70:16 0.000763291
4 *70:10 0.00236562
5 *70:8 0.00206147
6 *2359:RESET_B *116:72 0.000163352
7 *2359:RESET_B *191:16 0.000165593
8 *70:8 *179:104 0.000586878
9 *70:10 *603:DIODE 4.95928e-05
10 *70:10 *82:18 2.55866e-05
11 *70:10 *99:21 8.99174e-05
12 *70:10 *105:10 0.00162048
13 *70:10 *119:40 0
14 *70:10 *122:37 2.68708e-05
15 *70:10 *122:43 0
16 *70:10 *181:26 0.00202277
17 *70:10 *182:44 0.000599652
18 *70:10 *198:28 4.85126e-05
19 *70:10 *218:34 0.000150008
20 *70:10 *218:76 0.00105144
21 *70:16 *441:DIODE 0.000188301
22 *70:16 *172:62 1.56762e-05
23 *70:16 *186:22 1.34995e-05
24 *70:16 *188:18 0.00025996
25 *70:16 *201:65 0.000714226
26 *2357:RESET_B *70:16 0.000371449
27 *27:14 *70:16 0.000175903
28 *68:8 *70:16 0.000808198
*RES
1 *2321:Y *70:8 44.3386 
2 *70:8 *70:10 46.98 
3 *70:10 *70:16 49.2021 
4 *70:16 *2359:RESET_B 17.2579 
*END

*D_NET *71 0.0176082
*CONN
*I *581:DIODE I *D sky130_fd_sc_hd__diode_2
*I *2360:RESET_B I *D sky130_fd_sc_hd__dfrtp_4
*I *2322:Y O *D sky130_fd_sc_hd__inv_2
*CAP
1 *581:DIODE 0
2 *2360:RESET_B 0.000725049
3 *2322:Y 0.00028368
4 *71:22 0.000820091
5 *71:18 0.00514213
6 *71:10 0.00533077
7 *2360:RESET_B *2363:RESET_B 0.000222447
8 *2360:RESET_B *179:104 0.000102389
9 *2360:RESET_B *179:112 1.71761e-05
10 *2360:RESET_B *197:12 3.61695e-05
11 *71:10 *529:DIODE 0.000266312
12 *71:10 *80:18 1.2974e-05
13 *71:10 *171:120 0.000398075
14 *71:10 *172:10 6.16484e-05
15 *71:10 *180:20 0.000195259
16 *71:10 *180:40 1.12863e-05
17 *71:18 *123:20 0.000347283
18 *71:18 *132:18 0
19 *71:18 *184:54 0.000741939
20 *71:18 *184:84 0
21 *71:18 *184:99 0
22 *71:18 *186:36 0.000518236
23 *71:18 *195:72 0
24 *71:18 *196:44 0
25 *71:18 *196:52 0.000110913
26 *71:18 *218:30 0.000221212
27 *71:22 *179:104 0.000133461
28 *7:17 *71:18 0.00181345
29 *21:8 *71:18 2.05505e-05
30 *30:16 *71:18 0
31 *40:6 *2360:RESET_B 5.3304e-05
32 *40:18 *2360:RESET_B 2.23467e-05
*RES
1 *2322:Y *71:10 45.2189 
2 *71:10 *71:18 46.6075 
3 *71:18 *71:22 16.5743 
4 *71:22 *2360:RESET_B 43.4539 
5 *71:22 *581:DIODE 23 
*END

*D_NET *72 0.00624378
*CONN
*I *2361:RESET_B I *D sky130_fd_sc_hd__dfrtp_4
*I *2324:Y O *D sky130_fd_sc_hd__inv_2
*CAP
1 *2361:RESET_B 0.000618975
2 *2324:Y 0.00132737
3 *72:6 0.00194634
4 *2361:RESET_B *2361:CLK 0.000449838
5 *2361:RESET_B *131:44 1.41891e-05
6 *2361:RESET_B *176:82 8.92035e-05
7 *2361:RESET_B *195:6 0.000299593
8 *2361:RESET_B *195:30 0.000347156
9 *2361:RESET_B *195:118 5.5792e-05
10 *72:6 *148:14 0.000321196
11 *72:6 *178:93 0.000774125
*RES
1 *2324:Y *72:6 41.7257 
2 *72:6 *2361:RESET_B 45.0282 
*END

*D_NET *73 0.0224332
*CONN
*I *2362:RESET_B I *D sky130_fd_sc_hd__dfrtp_4
*I *585:DIODE I *D sky130_fd_sc_hd__diode_2
*I *2325:Y O *D sky130_fd_sc_hd__inv_2
*CAP
1 *2362:RESET_B 0.000261782
2 *585:DIODE 0
3 *2325:Y 0.000613114
4 *73:18 0.00189141
5 *73:16 0.00271209
6 *73:12 0.00181317
7 *73:8 0.00134382
8 *2362:RESET_B *175:185 0.000193667
9 *2362:RESET_B *196:10 4.96717e-05
10 *73:8 *2325:A 6.07935e-05
11 *73:8 *2327:A 6.59188e-05
12 *73:8 *172:96 1.41129e-05
13 *73:8 *172:98 0.000425029
14 *73:8 *192:30 0.000638491
15 *73:12 *75:16 0.00137934
16 *73:12 *172:90 0.00016711
17 *73:12 *172:94 0.000168687
18 *73:12 *172:96 5.50106e-05
19 *73:12 *172:158 0.000263915
20 *73:12 *192:30 0.000285953
21 *73:16 *101:24 0.000138759
22 *73:16 *119:40 0.000608892
23 *73:16 *122:45 0.00226637
24 *73:16 *145:10 0.000360769
25 *73:16 *162:8 0
26 *73:18 *2339:A 0.000178517
27 *73:18 *169:40 0.000268754
28 *73:18 *169:75 9.5877e-05
29 *73:18 *169:94 0.00175869
30 *73:18 *175:168 4.21158e-05
31 *73:18 *175:185 0.000185364
32 *73:18 *190:118 0.000551537
33 *73:18 *190:131 0.000138607
34 *73:18 *191:90 2.02872e-05
35 *73:18 *191:112 6.24251e-05
36 *73:18 *196:10 9.77922e-06
37 *73:18 *211:38 0.00155105
38 *73:18 *211:48 0.000178517
39 *73:18 *212:63 0.000464582
40 *48:10 *73:18 0.00114921
*RES
1 *2325:Y *73:8 36.0293 
2 *73:8 *73:12 36.5843 
3 *73:12 *73:16 46.1336 
4 *73:16 *73:18 46.835 
5 *73:18 *585:DIODE 23 
6 *73:18 *2362:RESET_B 4.8575 
*END

*D_NET *74 0.0143946
*CONN
*I *2363:RESET_B I *D sky130_fd_sc_hd__dfrtp_4
*I *588:DIODE I *D sky130_fd_sc_hd__diode_2
*I *2326:Y O *D sky130_fd_sc_hd__inv_2
*CAP
1 *2363:RESET_B 0.00051373
2 *588:DIODE 0
3 *2326:Y 0.000289577
4 *74:12 0.00051373
5 *74:10 0.00311853
6 *74:8 0.00340811
7 *2363:RESET_B *2360:CLK 4.41734e-05
8 *2363:RESET_B *174:28 3.09013e-05
9 *2363:RESET_B *197:12 0.000225426
10 *74:8 *2326:A 0.000223687
11 *74:8 *100:75 0.000333339
12 *74:10 *78:10 0.00180137
13 *74:10 *105:16 0.000133445
14 *74:10 *105:24 0
15 *74:10 *115:34 0
16 *74:10 *116:14 0
17 *74:10 *165:16 1.40281e-05
18 *74:10 *184:68 6.68793e-05
19 *74:10 *186:10 6.28952e-05
20 *74:10 *186:22 0.000287408
21 *74:10 *187:48 0.000117254
22 *74:10 *188:12 0
23 *74:10 *188:18 0.000362694
24 *74:10 *198:36 0
25 *74:10 *201:48 0.000109377
26 *74:10 *204:120 0.000163361
27 *74:10 *219:16 0
28 *2360:RESET_B *2363:RESET_B 0.000222447
29 *18:10 *74:10 0.00146748
30 *30:18 *74:10 0.000481561
31 *40:6 *2363:RESET_B 0.000316273
32 *43:10 *74:10 8.69019e-05
*RES
1 *2326:Y *74:8 44.815 
2 *74:8 *74:10 74.7993 
3 *74:10 *74:12 15 
4 *74:12 *588:DIODE 23 
5 *74:12 *2363:RESET_B 40.3054 
*END

*D_NET *75 0.0229547
*CONN
*I *591:DIODE I *D sky130_fd_sc_hd__diode_2
*I *2364:RESET_B I *D sky130_fd_sc_hd__dfrtp_2
*I *2327:Y O *D sky130_fd_sc_hd__inv_2
*CAP
1 *591:DIODE 0
2 *2364:RESET_B 0.000412053
3 *2327:Y 0.000177109
4 *75:38 0.001043
5 *75:32 0.00424595
6 *75:22 0.00443253
7 *75:16 0.00116068
8 *75:10 0.00052027
9 *2364:RESET_B *530:DIODE 7.59161e-05
10 *2364:RESET_B *2323:A 5.47983e-06
11 *2364:RESET_B *2364:CLK 0.000306553
12 *2364:RESET_B *169:108 0.000396976
13 *2364:RESET_B *169:125 2.93335e-05
14 *2364:RESET_B *172:10 5.50049e-05
15 *75:10 *116:72 8.62783e-05
16 *75:10 *172:94 9.41704e-05
17 *75:10 *172:96 5.3304e-05
18 *75:16 *192:30 0.00137872
19 *75:22 *99:29 0.000475604
20 *75:22 *106:34 0
21 *75:22 *120:14 0.00123425
22 *75:22 *149:10 0.000250321
23 *75:22 *184:54 0
24 *75:22 *195:90 0.000135037
25 *75:22 *209:22 0
26 *75:22 *209:39 0.000189309
27 *75:22 *211:78 0.000110913
28 *75:32 *2380:A 6.59111e-05
29 *75:32 *99:21 0.000630718
30 *75:32 *99:29 0.000104515
31 *75:32 *117:26 0
32 *75:32 *136:46 0.000142269
33 *75:32 *138:26 0.000479103
34 *75:32 *149:10 3.11878e-05
35 *75:32 *153:22 0
36 *75:32 *173:45 2.73218e-05
37 *75:32 *180:58 1.05236e-05
38 *75:32 *181:26 9.91442e-06
39 *75:32 *194:32 0
40 *75:32 *209:22 6.92184e-05
41 *75:32 *218:52 0
42 *75:38 *138:12 1.77642e-05
43 *75:38 *190:131 8.71394e-05
44 *75:38 *196:14 0.00119303
45 *2341:RESET_B *75:32 2.28437e-05
46 *27:10 *75:32 0.000562581
47 *33:22 *75:38 0.000990737
48 *41:20 *2364:RESET_B 0.000105453
49 *41:20 *75:38 6.57815e-06
50 *42:20 *75:38 0.00014977
51 *73:12 *75:16 0.00137934
*RES
1 *2327:Y *75:10 40.7757 
2 *75:10 *75:16 45.3907 
3 *75:16 *75:22 36.7914 
4 *75:22 *75:32 48.6216 
5 *75:32 *75:38 32.6175 
6 *75:38 *2364:RESET_B 10.1396 
7 *75:38 *591:DIODE 23 
*END

*D_NET *76 0.0113011
*CONN
*I *2365:RESET_B I *D sky130_fd_sc_hd__dfrtp_4
*I *2328:Y O *D sky130_fd_sc_hd__inv_2
*CAP
1 *2365:RESET_B 0.000294251
2 *2328:Y 0
3 *76:6 0.00394058
4 *76:4 0.00364633
5 *2365:RESET_B *149:30 8.4047e-05
6 *2365:RESET_B *150:16 0.000107212
7 *2365:RESET_B *150:29 0.000408255
8 *2365:RESET_B *177:104 1.85086e-05
9 *2365:RESET_B *177:124 0.000188686
10 *76:6 *2328:A 0.000128106
11 *76:6 *82:16 0.000231273
12 *76:6 *172:162 9.03364e-06
13 *76:6 *172:178 0.000191726
14 *76:6 *172:206 3.75094e-05
15 *76:6 *180:156 0.00017761
16 *2352:D *76:6 1.41077e-05
17 *2352:RESET_B *76:6 0.00182386
*RES
1 *2328:Y *76:4 23 
2 *76:4 *76:6 47.7879 
3 *76:6 *2365:RESET_B 37.1879 
*END

*D_NET *77 0.0103935
*CONN
*I *2366:RESET_B I *D sky130_fd_sc_hd__dfrtp_2
*I *2329:Y O *D sky130_fd_sc_hd__inv_2
*CAP
1 *2366:RESET_B 0
2 *2329:Y 0.000425075
3 *77:10 0.00138081
4 *77:8 0.00138081
5 *77:6 0.000425075
6 *77:6 *436:DIODE 0.00012612
7 *77:6 *2267:A 0.000398535
8 *77:6 *218:58 0.00108689
9 *77:10 *110:10 0.000950443
10 *77:10 *170:92 0.00308339
11 *77:10 *175:185 9.74235e-05
12 *77:10 *175:242 8.70172e-05
13 *77:10 *185:28 1.17049e-05
14 *77:10 *186:117 0.000272839
15 *28:20 *77:10 0.000667332
*RES
1 *2329:Y *77:6 35.0557 
2 *77:6 *77:8 15 
3 *77:8 *77:10 45.5714 
4 *77:10 *2366:RESET_B 15 
*END

*D_NET *78 0.00803872
*CONN
*I *2367:RESET_B I *D sky130_fd_sc_hd__dfrtp_2
*I *2330:Y O *D sky130_fd_sc_hd__inv_2
*CAP
1 *2367:RESET_B 0.000482978
2 *2330:Y 0
3 *78:10 0.00135101
4 *78:6 0.000868034
5 *2367:RESET_B *219:16 0.000226306
6 *78:10 *105:16 0.00103712
7 *78:10 *165:16 0.000355192
8 *2367:D *2367:RESET_B 0.000517373
9 *35:14 *2367:RESET_B 0.00139934
10 *74:10 *78:10 0.00180137
*RES
1 *2330:Y *78:6 38 
2 *78:6 *78:10 39.795 
3 *78:10 *2367:RESET_B 15.7946 
*END

*D_NET *79 0.0005389
*CONN
*I *2368:RESET_B I *D sky130_fd_sc_hd__dfrtp_1
*I *2331:Y O *D sky130_fd_sc_hd__inv_2
*CAP
1 *2368:RESET_B 9.24567e-05
2 *2331:Y 6.84508e-05
3 *79:8 0.000160907
4 *2368:RESET_B *199:92 0.00010252
5 *79:8 *94:18 0.000114566
*RES
1 *2331:Y *79:8 39.5536 
2 *79:8 *2368:RESET_B 16.9782 
*END

*D_NET *80 0.0172965
*CONN
*I *2369:RESET_B I *D sky130_fd_sc_hd__dfrtp_4
*I *599:DIODE I *D sky130_fd_sc_hd__diode_2
*I *2332:Y O *D sky130_fd_sc_hd__inv_2
*CAP
1 *2369:RESET_B 0.000326912
2 *599:DIODE 0.000208617
3 *2332:Y 0.000385366
4 *80:26 0.00119031
5 *80:18 0.00202358
6 *80:16 0.00136879
7 *80:14 0.00143561
8 *80:8 0.00182098
9 *599:DIODE *170:34 0
10 *599:DIODE *170:36 0
11 *599:DIODE *170:42 0
12 *2369:RESET_B *2369:CLK 5.45644e-05
13 *2369:RESET_B *170:76 0.000100782
14 *80:8 *119:24 0.000100133
15 *80:8 *119:26 0.000106277
16 *80:8 *124:22 0.000138607
17 *80:8 *159:6 9.08709e-06
18 *80:14 *113:18 0.000549624
19 *80:14 *119:24 8.9728e-05
20 *80:14 *172:46 7.3974e-05
21 *80:14 *175:33 0
22 *80:14 *202:62 0.000640198
23 *80:14 *208:32 0.000594599
24 *80:14 *208:38 0.000142958
25 *80:18 *151:61 0.000452316
26 *80:18 *172:10 0.000659949
27 *80:18 *172:21 0.000169563
28 *80:18 *172:38 0.000795308
29 *80:18 *175:86 0.000311167
30 *80:18 *175:90 0.000591094
31 *80:18 *175:140 0.000412115
32 *80:18 *175:153 0.000196913
33 *80:18 *175:168 0.000904271
34 *80:18 *180:20 0
35 *80:26 *102:8 0.000974096
36 *80:26 *136:50 0.000248403
37 *34:8 *599:DIODE 0
38 *39:24 *80:14 4.6318e-06
39 *54:6 *2369:RESET_B 1.4269e-05
40 *54:12 *599:DIODE 5.29732e-06
41 *54:12 *80:26 9.74048e-05
42 *61:10 *599:DIODE 8.60121e-05
43 *71:10 *80:18 1.2974e-05
*RES
1 *2332:Y *80:8 44.815 
2 *80:8 *80:14 45.3671 
3 *80:14 *80:16 15 
4 *80:16 *80:18 39.2329 
5 *80:18 *80:26 45.7014 
6 *80:26 *599:DIODE 41.3143 
7 *80:26 *2369:RESET_B 20.4789 
*END

*D_NET *81 0.0105254
*CONN
*I *2370:RESET_B I *D sky130_fd_sc_hd__dfrtp_4
*I *2333:Y O *D sky130_fd_sc_hd__inv_2
*CAP
1 *2370:RESET_B 0
2 *2333:Y 0
3 *81:14 0.000953536
4 *81:6 0.0029171
5 *81:4 0.00196357
6 *81:6 *540:DIODE 0.00019046
7 *81:6 *109:75 0.000183733
8 *81:6 *150:35 0.00185472
9 *81:14 *91:10 0.000415052
10 *81:14 *91:14 0.000446607
11 *81:14 *111:10 0.000200735
12 *81:14 *192:122 0
13 *81:14 *193:87 8.62073e-06
14 *81:14 *213:152 2.5415e-05
15 *58:18 *81:14 0.00136583
*RES
1 *2333:Y *81:4 23 
2 *81:4 *81:6 36.3536 
3 *81:6 *81:14 41.7421 
4 *81:14 *2370:RESET_B 15 
*END

*D_NET *82 0.0193067
*CONN
*I *2371:RESET_B I *D sky130_fd_sc_hd__dfrtp_2
*I *603:DIODE I *D sky130_fd_sc_hd__diode_2
*I *2334:Y O *D sky130_fd_sc_hd__inv_2
*CAP
1 *2371:RESET_B 9.12477e-05
2 *603:DIODE 7.06147e-05
3 *2334:Y 4.66415e-05
4 *82:18 0.00176626
5 *82:16 0.00177072
6 *82:12 0.00120766
7 *82:8 0.00108798
8 *603:DIODE *122:43 4.95928e-05
9 *2371:RESET_B *174:18 0.000111298
10 *2371:RESET_B *206:12 0.000130725
11 *2371:RESET_B *206:38 9.77405e-05
12 *82:8 *170:155 5.3304e-05
13 *82:12 *96:46 0.00239281
14 *82:12 *139:12 0.00147494
15 *82:12 *152:26 0.000170883
16 *82:12 *169:241 1.01436e-05
17 *82:12 *201:67 0.000307985
18 *82:16 *172:178 0.000234196
19 *82:18 *101:24 0.000473474
20 *82:18 *106:34 0.000324802
21 *82:18 *122:43 2.42569e-05
22 *82:18 *122:45 0.00385933
23 *82:18 *178:97 0.000803721
24 *82:18 *218:34 0.000145582
25 *82:18 *218:76 0.00229438
26 *70:10 *603:DIODE 4.95928e-05
27 *70:10 *82:18 2.55866e-05
28 *76:6 *82:16 0.000231273
*RES
1 *2334:Y *82:8 38.6214 
2 *82:8 *82:12 47.8943 
3 *82:12 *82:16 19.9093 
4 *82:16 *82:18 54.375 
5 *82:18 *603:DIODE 39.5536 
6 *82:18 *2371:RESET_B 17.4546 
*END

*D_NET *83 0.0108739
*CONN
*I *2372:RESET_B I *D sky130_fd_sc_hd__dfrtp_1
*I *2335:Y O *D sky130_fd_sc_hd__inv_2
*CAP
1 *2372:RESET_B 0.00104559
2 *2335:Y 0.000468117
3 *83:12 0.0016072
4 *83:6 0.00102972
5 *2372:RESET_B *171:230 0.000428986
6 *2372:RESET_B *171:238 0.000186606
7 *2372:RESET_B *207:6 2.95843e-05
8 *83:6 *390:DIODE 5.50049e-05
9 *83:6 *2335:A 0.000228001
10 *83:6 *118:24 0.00165848
11 *83:6 *122:73 0.0002246
12 *83:6 *169:206 0.000388377
13 *83:12 *122:45 0.000808596
14 *83:12 *122:73 0.000559294
15 *83:12 *178:97 0.00139468
16 *69:6 *2372:RESET_B 0.000761047
*RES
1 *2335:Y *83:6 41.2493 
2 *83:6 *83:12 49.1607 
3 *83:12 *2372:RESET_B 20.0825 
*END

*D_NET *84 0.00947617
*CONN
*I *2373:RESET_B I *D sky130_fd_sc_hd__dfrtp_4
*I *2336:Y O *D sky130_fd_sc_hd__inv_2
*CAP
1 *2373:RESET_B 0.00106026
2 *2336:Y 0.000920367
3 *84:12 0.00130247
4 *84:6 0.00116257
5 *2373:RESET_B *171:135 0.000137629
6 *2373:RESET_B *199:116 0.000557881
7 *2373:RESET_B *200:12 0.00107911
8 *2373:RESET_B *203:44 0.000328695
9 *84:6 *2336:A 0.00013024
10 *84:6 *161:22 2.48018e-05
11 *84:6 *169:160 0.001547
12 *84:12 *199:116 0.000558046
13 *84:12 *200:12 0.000266679
14 *30:16 *2373:RESET_B 0.000400422
*RES
1 *2336:Y *84:6 42.2021 
2 *84:6 *84:12 23.1096 
3 *84:12 *2373:RESET_B 44.7768 
*END

*D_NET *85 0.0080684
*CONN
*I *2374:RESET_B I *D sky130_fd_sc_hd__dfrtp_4
*I *2337:Y O *D sky130_fd_sc_hd__inv_2
*CAP
1 *2374:RESET_B 0.000512462
2 *2337:Y 0
3 *85:8 0.0020931
4 *85:4 0.00158064
5 *2374:RESET_B *143:24 9.55749e-05
6 *2374:RESET_B *156:77 0.000746906
7 *2374:RESET_B *171:116 4.88741e-05
8 *2374:RESET_B *178:10 2.45092e-05
9 *2374:RESET_B *178:16 0.00035879
10 *2374:RESET_B *178:34 5.3304e-05
11 *2374:RESET_B *199:132 0
12 *85:8 *2289:B 0.000453331
13 *85:8 *2337:A 0.000119477
14 *85:8 *165:10 0.000126162
15 *85:8 *220:38 0.00135693
16 *85:8 *220:42 5.92492e-05
17 *85:8 *220:53 0.000439093
*RES
1 *2337:Y *85:4 23 
2 *85:4 *85:8 47.5421 
3 *85:8 *2374:RESET_B 27.3354 
*END

*D_NET *86 0.00164393
*CONN
*I *2375:RESET_B I *D sky130_fd_sc_hd__dfrtp_4
*I *2338:Y O *D sky130_fd_sc_hd__inv_2
*CAP
1 *2375:RESET_B 0.000510746
2 *2338:Y 0.000510746
3 *2375:RESET_B *608:DIODE 0.000172996
4 *2375:RESET_B *2338:A 9.84851e-05
5 *2375:RESET_B *2375:CLK 9.84794e-05
6 *2375:D *2375:RESET_B 0.00011672
7 *49:14 *2375:RESET_B 0.000135753
*RES
1 *2338:Y *2375:RESET_B 34.8382 
*END

*D_NET *87 0.00926587
*CONN
*I *2376:RESET_B I *D sky130_fd_sc_hd__dfrtp_4
*I *2339:Y O *D sky130_fd_sc_hd__inv_2
*CAP
1 *2376:RESET_B 0.00176162
2 *2339:Y 0
3 *87:10 0.00218616
4 *87:6 0.000424538
5 *2376:RESET_B *107:14 0.000763263
6 *2376:RESET_B *108:6 0.000524572
7 *2376:RESET_B *172:46 0.000170784
8 *2376:RESET_B *172:50 9.94766e-05
9 *2376:RESET_B *182:10 2.86086e-05
10 *2376:RESET_B *182:80 5.3304e-05
11 *2376:RESET_B *196:89 9.2057e-05
12 *2376:RESET_B *221:12 2.11315e-05
13 *87:10 *96:46 3.36534e-05
14 *87:10 *174:126 0.000342125
15 *87:10 *182:32 0.000751179
16 *87:10 *182:80 0.000203152
17 *19:22 *2376:RESET_B 0.00126273
18 *56:18 *87:10 0.000547518
*RES
1 *2339:Y *87:6 38 
2 *87:6 *87:10 28.1743 
3 *87:10 *2376:RESET_B 35.5354 
*END

*D_NET *88 0.0130847
*CONN
*I *2377:RESET_B I *D sky130_fd_sc_hd__dfrtp_4
*I *2340:Y O *D sky130_fd_sc_hd__inv_2
*CAP
1 *2377:RESET_B 0.000622156
2 *2340:Y 0.000700657
3 *88:18 0.00280821
4 *88:12 0.00244024
5 *88:6 0.000954846
6 *2377:RESET_B *178:6 0.000135829
7 *2377:RESET_B *189:30 5.90312e-05
8 *2377:RESET_B *213:20 8.06804e-06
9 *2377:RESET_B *214:22 0.00136821
10 *88:6 *2340:A 0.000188934
11 *88:6 *169:176 2.54749e-05
12 *88:6 *201:22 0.000770144
13 *88:12 *131:18 0.000215812
14 *88:12 *134:8 0.000138177
15 *88:12 *134:10 0.000329855
16 *88:12 *134:16 0.000218481
17 *88:12 *169:40 0.000217473
18 *88:18 *119:40 0.00030189
19 *88:18 *122:43 0.000232729
20 *88:18 *122:45 3.31053e-05
21 *88:18 *167:34 0.00113592
22 *88:18 *218:38 0.000179473
*RES
1 *2340:Y *88:6 35.5321 
2 *88:6 *88:12 38.9486 
3 *88:12 *88:18 45.7193 
4 *88:18 *2377:RESET_B 30.3182 
*END

*D_NET *89 0.00985476
*CONN
*I *2377:D I *D sky130_fd_sc_hd__dfrtp_4
*I *2189:Y O *D sky130_fd_sc_hd__xnor2_1
*CAP
1 *2377:D 2.23273e-05
2 *2189:Y 0
3 *89:8 0.00170805
4 *89:6 0.00168572
5 *2377:D *178:6 2.95423e-05
6 *2377:D *214:22 5.3304e-05
7 *89:8 *95:20 0
8 *89:8 *107:10 1.88972e-05
9 *89:8 *124:16 0.000711786
10 *89:8 *141:8 0.000196239
11 *89:8 *141:58 0.000586303
12 *89:8 *173:12 2.47015e-05
13 *89:8 *173:18 0.000137179
14 *89:8 *174:173 0.000566771
15 *89:8 *190:16 0.0010935
16 *89:8 *192:69 0.00038442
17 *39:32 *89:8 0.00145378
18 *50:12 *89:8 0.001113
19 *51:12 *89:8 6.92266e-05
*RES
1 *2189:Y *89:6 38 
2 *89:6 *89:8 46.6279 
3 *89:8 *2377:D 38.6214 
*END

*D_NET *90 0.0307777
*CONN
*I *2182:A I *D sky130_fd_sc_hd__or4_2
*I *238:DIODE I *D sky130_fd_sc_hd__diode_2
*I *2178:X O *D sky130_fd_sc_hd__or4b_2
*CAP
1 *2182:A 0.000114991
2 *238:DIODE 1.32986e-05
3 *2178:X 0.000631608
4 *90:24 0.00315468
5 *90:20 0.0116685
6 *90:10 0.00927377
7 *238:DIODE *141:114 5.58152e-06
8 *238:DIODE *184:114 2.26406e-05
9 *2182:A *2182:D 0.000220592
10 *2182:A *130:20 0.000220592
11 *2182:A *141:114 8.08692e-06
12 *2182:A *184:114 4.36457e-05
13 *90:10 *2178:A 8.0314e-05
14 *90:10 *2236:A 0.000100545
15 *90:10 *189:70 0.000217543
16 *90:20 *105:24 0.000242348
17 *90:20 *158:22 0
18 *90:20 *172:88 0.000118223
19 *90:20 *174:92 0.00011563
20 *90:20 *176:82 0.000173453
21 *90:20 *181:10 0.000274243
22 *90:20 *181:12 0.000109
23 *90:20 *185:84 0.000623105
24 *90:20 *186:22 0.000118048
25 *90:20 *188:12 0.000296055
26 *90:20 *188:18 0.000365478
27 *90:24 *101:24 0.0020413
28 *30:18 *90:20 0.000112413
29 *40:6 *90:10 0.000411953
30 *67:16 *90:24 0
*RES
1 *2178:X *90:10 49.3618 
2 *90:10 *90:20 44.3224 
3 *90:20 *90:24 14.7965 
4 *90:24 *238:DIODE 38.3211 
5 *90:24 *2182:A 41.2004 
*END

*D_NET *91 0.00839077
*CONN
*I *2182:B I *D sky130_fd_sc_hd__or4_2
*I *2179:Y O *D sky130_fd_sc_hd__nand4_1
*CAP
1 *2182:B 0
2 *2179:Y 0.000429764
3 *91:18 0.00136053
4 *91:14 0.00149475
5 *91:10 0.000563984
6 *91:10 *100:162 0
7 *91:10 *193:87 6.63801e-05
8 *91:14 *100:162 0
9 *91:14 *111:10 0.000408065
10 *91:18 *356:DIODE 5.3304e-05
11 *91:18 *2182:C 7.56848e-05
12 *91:18 *2232:A 0.000442688
13 *91:18 *104:16 0.00166185
14 *91:18 *109:12 0.000334808
15 *91:18 *129:39 0.000410412
16 *91:18 *130:18 0.000226899
17 *81:14 *91:10 0.000415052
18 *81:14 *91:14 0.000446607
*RES
1 *2179:Y *91:10 49.5068 
2 *91:10 *91:14 20.9554 
3 *91:14 *91:18 35.4214 
4 *91:18 *2182:B 23 
*END

*D_NET *92 0.0109619
*CONN
*I *2182:C I *D sky130_fd_sc_hd__or4_2
*I *2180:X O *D sky130_fd_sc_hd__or4_1
*CAP
1 *2182:C 7.61015e-05
2 *2180:X 0
3 *92:8 0.00211351
4 *92:6 0.0020374
5 *2182:C *2182:D 2.95526e-05
6 *2182:C *2232:A 5.5792e-05
7 *2182:C *109:12 3.62386e-05
8 *2182:C *129:22 5.87231e-05
9 *92:8 *2299:A2 3.20828e-05
10 *92:8 *100:125 0
11 *92:8 *119:85 0
12 *92:8 *166:66 3.53698e-05
13 *92:8 *166:90 0.000201245
14 *92:8 *182:24 7.96802e-05
15 *92:8 *191:82 4.41821e-06
16 *92:8 *196:93 0.000761011
17 *92:8 *196:115 0.00173078
18 *92:8 *203:74 0.000791226
19 *92:8 *203:96 0.0018022
20 *92:8 *203:116 0.00104087
21 *91:18 *2182:C 7.56848e-05
*RES
1 *2180:X *92:6 38 
2 *92:6 *92:8 55.7836 
3 *92:8 *2182:C 40.6929 
*END

*D_NET *93 0.00794055
*CONN
*I *2182:D I *D sky130_fd_sc_hd__or4_2
*I *2181:X O *D sky130_fd_sc_hd__or4b_1
*CAP
1 *2182:D 0.000475769
2 *2181:X 0
3 *93:10 0.00195179
4 *93:6 0.00147602
5 *2182:D *109:12 0.00174154
6 *2182:D *130:20 0.000516637
7 *2182:D *212:96 0.00047674
8 *93:10 *118:26 0
9 *93:10 *144:37 0
10 *93:10 *172:184 0.000354017
11 *93:10 *197:66 0.000548801
12 *93:10 *210:10 0
13 *2182:A *2182:D 0.000220592
14 *2182:C *2182:D 2.95526e-05
15 *19:10 *93:10 0.000149096
*RES
1 *2181:X *93:6 38 
2 *93:6 *93:10 42.9643 
3 *93:10 *2182:D 42.2021 
*END

*D_NET *94 0.0290664
*CONN
*I *2188:A I *D sky130_fd_sc_hd__or4_4
*I *326:DIODE I *D sky130_fd_sc_hd__diode_2
*I *2220:A I *D sky130_fd_sc_hd__or3_4
*I *256:DIODE I *D sky130_fd_sc_hd__diode_2
*I *2182:X O *D sky130_fd_sc_hd__or4_2
*CAP
1 *2188:A 0
2 *326:DIODE 0
3 *2220:A 0.000142708
4 *256:DIODE 4.99221e-05
5 *2182:X 0.000683008
6 *94:43 0.00106737
7 *94:41 0.00116672
8 *94:26 0.000513438
9 *94:24 0.00129246
10 *94:18 0.00386469
11 *94:16 0.00317694
12 *94:8 0.00106626
13 *256:DIODE *121:20 5.3304e-05
14 *2220:A *120:20 0.000231499
15 *2220:A *121:20 4.96733e-05
16 *2220:A *218:14 5.50106e-05
17 *94:8 *130:20 0.000470342
18 *94:16 *176:63 1.41891e-05
19 *94:18 *95:20 0
20 *94:18 *117:26 4.03654e-05
21 *94:18 *171:238 2.38097e-05
22 *94:18 *171:252 0
23 *94:18 *172:206 0.000111648
24 *94:18 *172:208 8.22445e-05
25 *94:18 *172:214 0.000602357
26 *94:18 *176:30 0
27 *94:18 *176:38 2.59227e-05
28 *94:18 *176:52 1.11421e-05
29 *94:18 *184:16 1.19519e-05
30 *94:18 *192:57 0
31 *94:18 *202:24 0.000897284
32 *94:24 *95:20 0
33 *94:24 *171:86 0.00165724
34 *94:24 *171:92 0.000599959
35 *94:26 *121:20 4.08664e-05
36 *94:26 *157:31 3.58358e-05
37 *94:26 *159:24 4.96717e-05
38 *94:41 *2188:B 0.00029741
39 *94:41 *98:14 0.00057775
40 *94:41 *121:12 3.33144e-05
41 *94:41 *121:20 2.18409e-05
42 *94:41 *157:31 0.00014196
43 *94:43 *2188:B 5.67058e-05
44 *94:43 *2188:D 0.000519294
45 *94:43 *98:14 0.000117665
46 *94:43 *100:8 0.000844674
47 *94:43 *120:20 0.00183179
48 *94:43 *121:20 0.000323571
49 *94:43 *218:14 0.0022356
50 *21:24 *94:18 0.000771942
51 *21:24 *94:24 0.0023099
52 *21:24 *94:41 0
53 *21:32 *94:16 0
54 *21:32 *94:18 0
55 *55:12 *94:41 0
56 *59:18 *94:16 4.35681e-06
57 *64:10 *94:18 0.000561647
58 *66:32 *94:16 0.00014229
59 *66:32 *94:18 7.22565e-05
60 *79:8 *94:18 0.000114566
*RES
1 *2182:X *94:8 47.6736 
2 *94:8 *94:16 7.16714 
3 *94:16 *94:18 56.6639 
4 *94:18 *94:24 47.6354 
5 *94:24 *94:26 3.00357 
6 *94:26 *256:DIODE 23.6214 
7 *94:26 *94:41 37.54 
8 *94:41 *94:43 38.7357 
9 *94:43 *2220:A 26.9771 
10 *94:43 *326:DIODE 23 
11 *94:41 *2188:A 23 
*END

*D_NET *95 0.0220004
*CONN
*I *2185:B I *D sky130_fd_sc_hd__or3_1
*I *246:DIODE I *D sky130_fd_sc_hd__diode_2
*I *324:DIODE I *D sky130_fd_sc_hd__diode_2
*I *2219:C I *D sky130_fd_sc_hd__or4_1
*I *2183:X O *D sky130_fd_sc_hd__or4_2
*CAP
1 *2185:B 0.000210728
2 *246:DIODE 0
3 *324:DIODE 0.000106459
4 *2219:C 0
5 *2183:X 0
6 *95:46 0.00105788
7 *95:42 0.00186817
8 *95:24 0.000224337
9 *95:20 0.00251721
10 *95:18 0.00353781
11 *95:12 0.00140775
12 *95:4 0.00129028
13 *324:DIODE *323:DIODE 9.32855e-05
14 *324:DIODE *96:34 1.35714e-05
15 *2185:B *2185:A 0.000187129
16 *2185:B *203:120 0.000171296
17 *95:12 *172:188 0.000238463
18 *95:12 *176:129 9.17458e-05
19 *95:12 *184:114 8.23478e-05
20 *95:12 *206:103 1.0092e-05
21 *95:12 *207:14 6.10629e-05
22 *95:18 *163:22 0.000188926
23 *95:18 *171:238 0
24 *95:18 *171:252 0.000264346
25 *95:18 *176:30 0.000822975
26 *95:18 *176:38 0
27 *95:18 *206:84 0.00217964
28 *95:20 *108:18 0.000117826
29 *95:20 *116:58 0
30 *95:20 *117:26 0
31 *95:20 *146:20 0.000722474
32 *95:20 *171:86 0
33 *95:20 *172:58 4.49946e-05
34 *95:20 *190:16 0
35 *95:20 *192:57 0.000385588
36 *95:20 *206:84 2.38704e-05
37 *95:20 *213:190 0
38 *95:24 *322:DIODE 0.000157818
39 *95:24 *323:DIODE 4.36654e-05
40 *95:24 *96:20 0.000143423
41 *95:24 *96:34 2.82709e-05
42 *95:24 *121:8 0.000229801
43 *95:24 *212:32 4.65096e-05
44 *95:42 *134:175 0.000819147
45 *95:42 *141:114 0
46 *95:42 *184:114 0.000618901
47 *95:42 *203:116 0
48 *95:42 *207:14 4.67488e-05
49 *95:46 *203:120 0.000617876
50 *2351:RESET_B *95:12 9.11717e-05
51 *21:32 *95:18 0.000253713
52 *47:22 *95:18 4.02943e-05
53 *51:12 *95:20 0
54 *51:14 *95:20 0.000885514
55 *62:8 *95:12 5.72853e-05
56 *89:8 *95:20 0
57 *94:18 *95:20 0
58 *94:24 *95:20 0
*RES
1 *2183:X *95:4 23 
2 *95:4 *95:12 37.1671 
3 *95:12 *95:18 46.7446 
4 *95:18 *95:20 44.8775 
5 *95:20 *95:24 19.4329 
6 *95:24 *2219:C 23 
7 *95:24 *324:DIODE 25.0507 
8 *95:4 *95:42 35.9629 
9 *95:42 *95:46 27.5321 
10 *95:46 *246:DIODE 23 
11 *95:46 *2185:B 27.9507 
*END

*D_NET *96 0.0266666
*CONN
*I *2185:C I *D sky130_fd_sc_hd__or3_1
*I *247:DIODE I *D sky130_fd_sc_hd__diode_2
*I *325:DIODE I *D sky130_fd_sc_hd__diode_2
*I *2219:D I *D sky130_fd_sc_hd__or4_1
*I *2184:X O *D sky130_fd_sc_hd__or3_2
*CAP
1 *2185:C 0.000201264
2 *247:DIODE 0
3 *325:DIODE 0
4 *2219:D 0
5 *2184:X 0.000934257
6 *96:46 0.00310036
7 *96:34 0.000422924
8 *96:20 0.0017465
9 *96:14 0.00422267
10 *96:12 0.000934257
11 *2185:C *2185:A 5.67058e-05
12 *2185:C *97:12 6.07611e-06
13 *2185:C *169:254 4.42688e-05
14 *96:12 *242:DIODE 9.5877e-05
15 *96:12 *2330:A 9.46594e-05
16 *96:12 *130:52 0.0012451
17 *96:12 *130:60 3.0538e-05
18 *96:12 *202:44 0.000146138
19 *96:12 *204:104 0.00158593
20 *96:20 *322:DIODE 0.000143423
21 *96:20 *121:8 0.000200081
22 *96:20 *159:40 0.000782167
23 *96:20 *166:10 0.0002034
24 *96:20 *166:54 0.000169794
25 *96:20 *169:44 0.000126154
26 *96:20 *174:16 0.000389063
27 *96:20 *174:126 0.000434544
28 *96:20 *182:32 0.000107782
29 *96:20 *209:140 0.000194559
30 *96:34 *322:DIODE 3.1645e-05
31 *96:34 *210:101 1.74874e-06
32 *96:34 *212:32 1.55766e-05
33 *96:46 *97:12 8.72702e-05
34 *96:46 *149:30 0.000141894
35 *96:46 *152:26 0.000108074
36 *96:46 *169:241 3.3746e-05
37 *96:46 *169:254 0.000163904
38 *96:46 *171:211 0
39 *96:46 *174:126 0.000184825
40 *96:46 *201:67 0.00068933
41 *96:46 *209:140 0.000225618
42 *96:46 *210:10 0.000319882
43 *96:46 *210:12 0.000157263
44 *96:46 *210:52 0.000390599
45 *324:DIODE *96:34 1.35714e-05
46 *51:14 *96:34 1.32646e-05
47 *56:18 *96:46 0.00387171
48 *82:12 *96:46 0.00239281
49 *87:10 *96:46 3.36534e-05
50 *95:24 *96:20 0.000143423
51 *95:24 *96:34 2.82709e-05
*RES
1 *2184:X *96:12 47.9814 
2 *96:12 *96:14 15 
3 *96:14 *96:20 46.8379 
4 *96:20 *96:34 35.1164 
5 *96:34 *2219:D 23 
6 *96:20 *325:DIODE 23 
7 *96:14 *96:46 80.7857 
8 *96:46 *247:DIODE 38 
9 *96:46 *2185:C 42.205 
*END

*D_NET *97 0.0220139
*CONN
*I *257:DIODE I *D sky130_fd_sc_hd__diode_2
*I *2188:B I *D sky130_fd_sc_hd__or4_4
*I *2185:X O *D sky130_fd_sc_hd__or3_1
*CAP
1 *257:DIODE 0
2 *2188:B 0.000233105
3 *2185:X 0.000499242
4 *97:24 0.00795579
5 *97:12 0.00822193
6 *2188:B *100:8 0.00010018
7 *2188:B *197:20 0.00010512
8 *2188:B *220:59 2.72088e-05
9 *97:24 *101:24 0
10 *97:24 *118:26 0.000114489
11 *97:24 *136:46 9.28029e-05
12 *97:24 *138:26 0.000218491
13 *97:24 *144:37 0.000119711
14 *97:24 *149:30 0.00123974
15 *97:24 *171:226 0.000124352
16 *97:24 *197:20 0.000166349
17 *97:24 *197:44 0.000177552
18 *97:24 *198:68 0.000116093
19 *97:24 *210:78 0.000445795
20 *97:24 *220:59 4.39444e-06
21 *2185:C *97:12 6.07611e-06
22 *7:17 *97:24 0.00124313
23 *30:16 *97:24 0
24 *55:12 *97:24 0.000141327
25 *55:18 *97:24 0.00021962
26 *94:41 *2188:B 0.00029741
27 *94:43 *2188:B 5.67058e-05
28 *96:46 *97:12 8.72702e-05
*RES
1 *2185:X *97:12 49.1339 
2 *97:12 *97:24 44.1096 
3 *97:24 *2188:B 43.51 
4 *97:24 *257:DIODE 38 
*END

*D_NET *98 0.00802973
*CONN
*I *2188:C I *D sky130_fd_sc_hd__or4_4
*I *2186:X O *D sky130_fd_sc_hd__or4b_1
*CAP
1 *2188:C 0
2 *2186:X 0.00065496
3 *98:14 0.00119288
4 *98:8 0.00184784
5 *98:8 *2186:A 4.05745e-05
6 *98:8 *209:142 0.000947174
7 *98:14 *121:12 0.000465704
8 *98:14 *121:20 0.000624679
9 *98:14 *123:12 0.000879777
10 *98:14 *167:26 0.000261558
11 *55:12 *98:14 0.000278838
12 *60:12 *98:14 0.00014032
13 *94:41 *98:14 0.00057775
14 *94:43 *98:14 0.000117665
*RES
1 *2186:X *98:8 49.5793 
2 *98:8 *98:14 47.858 
3 *98:14 *2188:C 23 
*END

*D_NET *99 0.0148355
*CONN
*I *2218:B I *D sky130_fd_sc_hd__or4b_1
*I *2188:D I *D sky130_fd_sc_hd__or4_4
*I *2187:X O *D sky130_fd_sc_hd__or4b_2
*CAP
1 *2218:B 0
2 *2188:D 0.00020359
3 *2187:X 0.000962686
4 *99:29 0.000724667
5 *99:21 0.00197915
6 *99:8 0.00145808
7 *99:6 0.000962686
8 *2188:D *121:20 0.000518218
9 *2188:D *122:37 0.000138718
10 *2188:D *182:44 0.000136486
11 *99:6 *2187:B 7.43025e-06
12 *99:6 *2187:D_N 2.18286e-05
13 *99:6 *165:10 0.00112728
14 *99:6 *187:48 5.50106e-05
15 *99:21 *122:37 0.000646782
16 *99:21 *181:26 0.00206804
17 *99:21 *182:44 0.000294528
18 *99:29 *149:10 0.000344541
19 *99:29 *172:58 9.41704e-05
20 *99:29 *201:65 9.58714e-05
21 *99:29 *209:22 0.000582395
22 *27:10 *99:21 0.000593329
23 *70:10 *99:21 8.99174e-05
24 *75:22 *99:29 0.000475604
25 *75:32 *99:21 0.000630718
26 *75:32 *99:29 0.000104515
27 *94:43 *2188:D 0.000519294
*RES
1 *2187:X *99:6 36.9614 
2 *99:6 *99:8 15 
3 *99:8 *2188:D 45.7679 
4 *99:8 *99:21 35.3593 
5 *99:21 *99:29 49.5543 
6 *99:29 *2218:B 38 
*END

*D_NET *100 0.0459504
*CONN
*I *419:DIODE I *D sky130_fd_sc_hd__diode_2
*I *2208:A I *D sky130_fd_sc_hd__and3_1
*I *296:DIODE I *D sky130_fd_sc_hd__diode_2
*I *2190:B I *D sky130_fd_sc_hd__and2b_1
*I *261:DIODE I *D sky130_fd_sc_hd__diode_2
*I *2189:B I *D sky130_fd_sc_hd__xnor2_1
*I *259:DIODE I *D sky130_fd_sc_hd__diode_2
*I *312:DIODE I *D sky130_fd_sc_hd__diode_2
*I *2214:B1 I *D sky130_fd_sc_hd__o21ai_1
*I *2259:A I *D sky130_fd_sc_hd__and3_1
*I *2251:A I *D sky130_fd_sc_hd__and3_1
*I *400:DIODE I *D sky130_fd_sc_hd__diode_2
*I *2188:X O *D sky130_fd_sc_hd__or4_4
*CAP
1 *419:DIODE 0
2 *2208:A 0
3 *296:DIODE 0
4 *2190:B 0.000113772
5 *261:DIODE 0
6 *2189:B 0
7 *259:DIODE 0
8 *312:DIODE 0
9 *2214:B1 0
10 *2259:A 0.000255889
11 *2251:A 0
12 *400:DIODE 4.6478e-05
13 *2188:X 0
14 *100:162 0.000457284
15 *100:149 0.00276873
16 *100:134 0.00243928
17 *100:127 0.000709766
18 *100:125 0.00196278
19 *100:117 0.00157327
20 *100:108 0.000405131
21 *100:99 0.00221942
22 *100:84 0.00224418
23 *100:75 0.00103503
24 *100:65 0.00143323
25 *100:50 0.000831416
26 *100:46 0.000175953
27 *100:42 0.000956642
28 *100:33 0.000204411
29 *100:16 0.000398697
30 *100:14 0.00171409
31 *100:8 0.0028705
32 *100:4 0.00213853
33 *400:DIODE *143:12 5.52998e-05
34 *2259:A *134:224 1.39161e-05
35 *2259:A *147:18 0.000152816
36 *2259:A *147:22 6.75241e-05
37 *100:8 *120:20 0.00111679
38 *100:14 *131:18 0.000299204
39 *100:14 *143:12 0.000431551
40 *100:14 *187:32 0.00011445
41 *100:16 *143:12 0.000178989
42 *100:33 *2251:B 6.84697e-05
43 *100:33 *143:8 0.000148229
44 *100:33 *143:12 0.000143869
45 *100:33 *147:24 2.36182e-05
46 *100:42 *125:26 0.00232482
47 *100:42 *127:20 0.000203555
48 *100:42 *136:16 0.00110778
49 *100:42 *146:30 3.6909e-05
50 *100:42 *147:24 6.03271e-05
51 *100:42 *179:142 0.000152298
52 *100:42 *179:168 0.000196426
53 *100:42 *188:42 0.000647821
54 *100:46 *146:30 0.000136743
55 *100:50 *125:18 8.36198e-05
56 *100:50 *134:218 3.6608e-05
57 *100:65 *125:18 0.0017827
58 *100:65 *127:20 0.000127409
59 *100:65 *134:218 1.07299e-05
60 *100:65 *147:10 0.000168862
61 *100:65 *147:18 0.000116375
62 *100:65 *192:26 0.000792264
63 *100:65 *192:140 0.000503714
64 *100:75 *2214:A1 3.6071e-05
65 *100:75 *2214:A2 0.000199
66 *100:75 *2326:A 1.41077e-05
67 *100:75 *116:76 0.000399729
68 *100:75 *116:98 0.000230634
69 *100:75 *117:10 6.17437e-06
70 *100:84 *2214:A1 2.0412e-05
71 *100:84 *117:10 0.000100236
72 *100:84 *213:103 0.000124931
73 *100:84 *213:116 0.000175403
74 *100:99 *557:DIODE 8.53902e-05
75 *100:99 *117:10 0.000336141
76 *100:99 *176:38 0.000144664
77 *100:99 *210:76 0.000141438
78 *100:99 *213:116 5.58003e-05
79 *100:108 *557:DIODE 0.000187692
80 *100:108 *2189:A 1.59071e-05
81 *100:117 *557:DIODE 0.000139677
82 *100:117 *2189:A 2.93335e-05
83 *100:117 *134:169 4.96717e-05
84 *100:125 *119:85 0.0014661
85 *100:125 *129:22 0
86 *100:125 *130:18 5.99067e-05
87 *100:125 *134:175 0.000137696
88 *100:125 *208:12 0.00198699
89 *100:127 *129:12 5.44733e-05
90 *100:149 *260:DIODE 0.000145004
91 *100:162 *113:8 0
92 *2188:B *100:8 0.00010018
93 *2346:RESET_B *100:99 1.73638e-05
94 *26:10 *100:14 0
95 *47:22 *100:99 5.41082e-05
96 *74:8 *100:75 0.000333339
97 *91:10 *100:162 0
98 *91:14 *100:162 0
99 *92:8 *100:125 0
100 *94:43 *100:8 0.000844674
*RES
1 *2188:X *100:4 23 
2 *100:4 *100:8 46.1129 
3 *100:8 *100:14 28.5057 
4 *100:14 *100:16 2.05071 
5 *100:16 *400:DIODE 23.6214 
6 *100:16 *100:33 35.7793 
7 *100:33 *2251:A 23 
8 *100:14 *100:42 47.8943 
9 *100:42 *100:46 16.5743 
10 *100:46 *100:50 16.2014 
11 *100:50 *2259:A 41.5007 
12 *100:50 *100:65 38.7386 
13 *100:65 *100:75 19.5129 
14 *100:75 *2214:B1 23 
15 *100:75 *100:84 3.97714 
16 *100:84 *312:DIODE 23 
17 *100:84 *100:99 28.5857 
18 *100:99 *259:DIODE 23 
19 *100:99 *100:108 2.54786 
20 *100:108 *2189:B 23 
21 *100:108 *100:117 20.3857 
22 *100:117 *100:125 48.6607 
23 *100:125 *100:127 8.72071 
24 *100:127 *261:DIODE 23 
25 *100:127 *100:134 0.497143 
26 *100:134 *2190:B 25.7757 
27 *100:134 *100:149 29.3729 
28 *100:149 *296:DIODE 23 
29 *100:149 *100:162 37.3743 
30 *100:162 *2208:A 23 
31 *100:46 *419:DIODE 23 
*END

*D_NET *101 0.023627
*CONN
*I *262:DIODE I *D sky130_fd_sc_hd__diode_2
*I *2191:A I *D sky130_fd_sc_hd__clkbuf_1
*I *2190:X O *D sky130_fd_sc_hd__and2b_1
*CAP
1 *262:DIODE 7.81083e-05
2 *2191:A 0
3 *2190:X 0.00010327
4 *101:26 7.81083e-05
5 *101:24 0.00929705
6 *101:10 0.00940032
7 *262:DIODE *174:18 0.000220592
8 *262:DIODE *206:38 0.00022308
9 *101:10 *103:34 3.06967e-05
10 *101:10 *119:185 0
11 *101:24 *119:40 0.000120999
12 *101:24 *122:43 4.44897e-05
13 *101:24 *122:45 0.000576242
14 *101:24 *132:18 1.88821e-05
15 *101:24 *136:46 0.000133698
16 *101:24 *145:10 0.000106911
17 *101:24 *149:30 0
18 *101:24 *153:22 1.35259e-05
19 *101:24 *162:8 0.000118027
20 *101:24 *201:67 0.000141894
21 *101:24 *218:30 7.66298e-06
22 *101:24 *218:76 0.000118027
23 *46:10 *101:24 0.000141894
24 *73:16 *101:24 0.000138759
25 *82:18 *101:24 0.000473474
26 *90:24 *101:24 0.0020413
27 *97:24 *101:24 0
*RES
1 *2190:X *101:10 47.7296 
2 *101:10 *101:24 44.8183 
3 *101:24 *101:26 15 
4 *101:26 *2191:A 23 
5 *101:26 *262:DIODE 25.5271 
*END

*D_NET *102 0.0143839
*CONN
*I *2194:A I *D sky130_fd_sc_hd__and2_1
*I *267:DIODE I *D sky130_fd_sc_hd__diode_2
*I *2192:X O *D sky130_fd_sc_hd__or2_1
*CAP
1 *2194:A 0.000287835
2 *267:DIODE 0
3 *2192:X 0
4 *102:12 0.000287835
5 *102:10 0.00367331
6 *102:8 0.00522089
7 *102:4 0.00154759
8 *2194:A *2194:B 0.000280535
9 *2194:A *103:18 6.4554e-05
10 *102:8 *263:DIODE 0.000137533
11 *102:8 *164:14 0.000622251
12 *102:10 *111:10 0
13 *102:10 *113:8 0.0012875
14 *102:10 *211:14 0
15 *45:10 *102:10 0
16 *80:26 *102:8 0.000974096
*RES
1 *2192:X *102:4 23 
2 *102:4 *102:8 47.5421 
3 *102:8 *102:10 75.5036 
4 *102:10 *102:12 15 
5 *102:12 *267:DIODE 23 
6 *102:12 *2194:A 29.38 
*END

*D_NET *103 0.024331
*CONN
*I *2196:B I *D sky130_fd_sc_hd__xnor2_1
*I *271:DIODE I *D sky130_fd_sc_hd__diode_2
*I *268:DIODE I *D sky130_fd_sc_hd__diode_2
*I *2194:B I *D sky130_fd_sc_hd__and2_1
*I *2193:Y O *D sky130_fd_sc_hd__nand2_2
*CAP
1 *2196:B 0.000248093
2 *271:DIODE 0.00012572
3 *268:DIODE 0
4 *2194:B 0.000113016
5 *2193:Y 0.000262829
6 *103:34 0.00253006
7 *103:18 0.00166978
8 *103:14 0.00536324
9 *103:8 0.00191305
10 *2194:B *104:8 3.66555e-05
11 *2196:B *205:90 0
12 *103:8 *151:90 0.000629256
13 *103:8 *173:45 5.3304e-05
14 *103:8 *183:12 0.000411278
15 *103:8 *183:24 0.00014915
16 *103:14 *156:65 0.00095069
17 *103:14 *178:74 1.40672e-05
18 *103:14 *181:150 0.000184291
19 *103:14 *181:166 0.000500354
20 *103:14 *181:177 0.000110922
21 *103:14 *181:194 0.000289494
22 *103:14 *183:150 0.000153123
23 *103:14 *192:92 0.00100782
24 *103:18 *106:62 0.00108149
25 *103:34 *470:DIODE 6.07971e-05
26 *103:34 *119:163 0
27 *103:34 *119:185 0
28 *103:34 *155:14 0
29 *103:34 *179:54 7.75329e-06
30 *103:34 *181:194 0.00011332
31 *103:34 *183:150 0.000908458
32 *103:34 *184:129 8.72173e-05
33 *103:34 *205:90 0
34 *2194:A *2194:B 0.000280535
35 *2194:A *103:18 6.4554e-05
36 *2365:D *103:34 0.00010019
37 *16:8 *103:14 0.00311761
38 *36:26 *103:14 0.00053024
39 *36:30 *103:34 2.04508e-05
40 *37:16 *103:18 0.000999756
41 *37:29 *103:18 0.000211718
42 *42:8 *2196:B 0
43 *42:8 *103:34 0
44 *101:10 *103:34 3.06967e-05
*RES
1 *2193:Y *103:8 45.2914 
2 *103:8 *103:14 49.6314 
3 *103:14 *103:18 45.16 
4 *103:18 *2194:B 26.8529 
5 *103:18 *268:DIODE 23 
6 *103:14 *103:34 40.9936 
7 *103:34 *271:DIODE 39.5743 
8 *103:34 *2196:B 42.785 
*END

*D_NET *104 0.0224863
*CONN
*I *269:DIODE I *D sky130_fd_sc_hd__diode_2
*I *2195:A I *D sky130_fd_sc_hd__buf_1
*I *2194:X O *D sky130_fd_sc_hd__and2_1
*CAP
1 *269:DIODE 0
2 *2195:A 6.62453e-05
3 *2194:X 7.44077e-05
4 *104:36 6.62453e-05
5 *104:34 0.00238781
6 *104:22 0.00328071
7 *104:20 0.00147625
8 *104:16 0.00239001
9 *104:12 0.00314007
10 *104:8 0.00140782
11 *2195:A *118:20 0.000167067
12 *104:12 *151:10 0
13 *104:20 *204:18 0.000895949
14 *104:22 *2334:A 5.50106e-05
15 *104:22 *170:155 0.000918596
16 *104:22 *171:226 0.000187343
17 *104:34 *106:134 0.000100139
18 *104:34 *193:72 0.000171476
19 *104:34 *214:87 0
20 an[3] *104:12 3.64407e-05
21 *2194:B *104:8 3.66555e-05
22 *49:8 *2195:A 0.000272377
23 *58:12 *104:22 0.000380781
24 *58:14 *104:22 0.00167952
25 *65:6 *104:22 0.00163357
26 *91:18 *104:16 0.00166185
*RES
1 *2194:X *104:8 39.0979 
2 *104:8 *104:12 38.7386 
3 *104:12 *104:16 40.8721 
4 *104:16 *104:20 27.1179 
5 *104:20 *104:22 42.5471 
6 *104:22 *104:34 37.675 
7 *104:34 *104:36 15 
8 *104:36 *2195:A 26.5007 
9 *104:36 *269:DIODE 23 
*END

*D_NET *105 0.0152188
*CONN
*I *2198:A I *D sky130_fd_sc_hd__clkbuf_4
*I *2197:X O *D sky130_fd_sc_hd__and4_1
*CAP
1 *2198:A 0
2 *2197:X 0
3 *105:24 0.000966167
4 *105:16 0.00226399
5 *105:10 0.00211304
6 *105:6 0.000815214
7 *105:10 *119:40 0
8 *105:10 *122:43 0.00011036
9 *105:10 *181:30 0.000172441
10 *105:10 *181:32 0.000611938
11 *105:10 *181:38 6.16531e-05
12 *105:16 *368:DIODE 5.3304e-05
13 *105:16 *578:DIODE 5.72749e-05
14 *105:16 *2237:B 0.000229552
15 *105:16 *131:14 8.21123e-05
16 *105:16 *165:16 0.000214405
17 *105:16 *166:24 0.000568355
18 *105:16 *174:92 0.000460458
19 *105:16 *185:84 7.31043e-06
20 *105:16 *189:30 0.000561796
21 *105:16 *189:32 5.3304e-05
22 *105:16 *201:48 0.000107212
23 *105:16 *214:22 6.70361e-05
24 *105:16 *214:26 9.91801e-05
25 *105:24 *185:84 0.00108272
26 *105:24 *188:18 0.00104577
27 *26:18 *105:24 0.000380757
28 *70:10 *105:10 0.00162048
29 *74:10 *105:16 0.000133445
30 *74:10 *105:24 0
31 *78:10 *105:16 0.00103712
32 *90:20 *105:24 0.000242348
*RES
1 *2197:X *105:6 38 
2 *105:6 *105:10 37.33 
3 *105:10 *105:16 49.1268 
4 *105:16 *105:24 39.1011 
5 *105:24 *2198:A 23 
*END

*D_NET *106 0.0524115
*CONN
*I *328:DIODE I *D sky130_fd_sc_hd__diode_2
*I *2221:A2 I *D sky130_fd_sc_hd__a31o_1
*I *2200:A_N I *D sky130_fd_sc_hd__and2b_1
*I *280:DIODE I *D sky130_fd_sc_hd__diode_2
*I *317:DIODE I *D sky130_fd_sc_hd__diode_2
*I *2216:C I *D sky130_fd_sc_hd__and4_1
*I *2203:C I *D sky130_fd_sc_hd__and3_2
*I *286:DIODE I *D sky130_fd_sc_hd__diode_2
*I *2204:A2 I *D sky130_fd_sc_hd__a21oi_1
*I *288:DIODE I *D sky130_fd_sc_hd__diode_2
*I *372:DIODE I *D sky130_fd_sc_hd__diode_2
*I *2238:A I *D sky130_fd_sc_hd__and4_1
*I *2202:B I *D sky130_fd_sc_hd__xor2_1
*I *283:DIODE I *D sky130_fd_sc_hd__diode_2
*I *305:DIODE I *D sky130_fd_sc_hd__diode_2
*I *2212:A I *D sky130_fd_sc_hd__and2_2
*I *2198:X O *D sky130_fd_sc_hd__clkbuf_4
*CAP
1 *328:DIODE 0
2 *2221:A2 0
3 *2200:A_N 0.00015682
4 *280:DIODE 0
5 *317:DIODE 0
6 *2216:C 0
7 *2203:C 0
8 *286:DIODE 0.000140594
9 *2204:A2 0.000101923
10 *288:DIODE 0
11 *372:DIODE 0.00011351
12 *2238:A 0
13 *2202:B 2.26091e-05
14 *283:DIODE 0
15 *305:DIODE 0.000110769
16 *2212:A 0
17 *2198:X 7.68064e-05
18 *106:178 0.000281734
19 *106:168 0.000526301
20 *106:140 0.000132916
21 *106:134 0.00141702
22 *106:130 0.00177357
23 *106:110 0.000168265
24 *106:108 0.0017263
25 *106:88 0.00165488
26 *106:68 0.000737139
27 *106:62 0.00329843
28 *106:51 0.00146805
29 *106:38 0.00114926
30 *106:34 0.00325463
31 *106:30 0.00293409
32 *106:14 0.000110769
33 *106:12 0.001519
34 *106:10 0.00341273
35 *106:8 0.000657642
36 *286:DIODE *138:32 9.86777e-06
37 *286:DIODE *209:61 5.56279e-05
38 *286:DIODE *211:96 2.02872e-05
39 *305:DIODE *2212:B 0.000182222
40 *305:DIODE *115:38 4.46854e-05
41 *305:DIODE *116:8 0.000141347
42 *305:DIODE *122:31 5.00237e-05
43 *2200:A_N *182:80 4.03039e-05
44 *2202:B *200:48 2.93431e-05
45 *2204:A2 *110:8 8.1796e-05
46 *106:10 *144:56 0.000472579
47 *106:10 *191:14 7.45175e-05
48 *106:10 *193:10 0.000295413
49 *106:12 *2256:B 0.000242052
50 *106:12 *116:14 2.68706e-05
51 *106:12 *136:10 0.00012758
52 *106:12 *144:56 0.00174101
53 *106:12 *158:22 0.000149785
54 *106:12 *189:56 0.00139643
55 *106:12 *193:10 0.00150762
56 *106:30 *181:20 0.000999675
57 *106:30 *181:133 0.000201318
58 *106:30 *182:80 0.000141127
59 *106:34 *178:97 0.000726648
60 *106:34 *181:26 3.32202e-05
61 *106:34 *209:22 0.000502087
62 *106:34 *211:78 0
63 *106:34 *218:76 0.000889908
64 *106:38 *172:178 0.00093924
65 *106:38 *172:206 8.29713e-05
66 *106:51 *172:206 0.000301116
67 *106:51 *212:12 0.000135839
68 *106:62 *2331:A 5.3304e-05
69 *106:62 *200:42 0.00113279
70 *106:62 *200:48 0.000189826
71 *106:68 *127:26 4.81862e-05
72 *106:68 *148:20 0.000163361
73 *106:68 *179:10 0
74 *106:68 *199:110 0.00108058
75 *106:68 *200:42 3.44543e-05
76 *106:68 *204:30 5.78088e-06
77 *106:88 *2270:A 1.74872e-05
78 *106:88 *127:26 0.000801254
79 *106:88 *141:90 0.000320651
80 *106:88 *151:22 1.74959e-05
81 *106:88 *179:30 0
82 *106:88 *180:169 0.000169683
83 *106:88 *184:140 0.000274627
84 *106:88 *195:130 0.000173635
85 *106:88 *199:29 0.000208084
86 *106:88 *200:78 6.84311e-05
87 *106:88 *200:95 4.74809e-05
88 *106:88 *200:106 8.93066e-05
89 *106:88 *204:18 3.65742e-06
90 *106:108 *109:8 3.88725e-05
91 *106:108 *138:32 7.64944e-05
92 *106:108 *178:97 0.0018909
93 *106:108 *211:78 0
94 *106:108 *211:96 0
95 *106:110 *138:32 2.95423e-05
96 *106:130 *178:97 0
97 *106:130 *209:105 8.01646e-05
98 *106:130 *211:96 1.7403e-05
99 *106:130 *213:118 0
100 *106:134 *384:DIODE 0.000185434
101 *106:134 *385:DIODE 0.000140259
102 *106:134 *169:228 0.000532067
103 *106:134 *171:180 0.000213821
104 *106:134 *171:198 0.000107713
105 *106:134 *213:122 0.000610082
106 *106:140 *116:78 3.64246e-05
107 *106:140 *213:130 3.18261e-05
108 *106:168 *191:14 0.000187505
109 *106:168 *193:10 0.00011344
110 *106:168 *193:48 5.23415e-05
111 *106:168 *213:72 5.884e-05
112 *106:178 *169:32 8.48189e-05
113 *106:178 *193:48 3.56594e-05
114 *106:178 *213:72 1.1314e-05
115 *21:24 *106:51 0.000135839
116 *26:18 *106:8 9.67842e-05
117 *33:10 *106:12 0.000242214
118 *34:8 *106:68 0.000149452
119 *37:12 *2202:B 5.3304e-05
120 *37:12 *106:62 0.00180194
121 *37:16 *106:62 0.00012942
122 *37:29 *106:68 5.26713e-05
123 *37:29 *106:88 1.37712e-05
124 *49:14 *106:130 0.000131846
125 *57:12 *106:68 7.45175e-05
126 *65:12 *106:88 0
127 *67:16 *106:140 0
128 *75:22 *106:34 0
129 *82:18 *106:34 0.000324802
130 *103:18 *106:62 0.00108149
131 *104:34 *106:134 0.000100139
*RES
1 *2198:X *106:8 39.0979 
2 *106:8 *106:10 8.59643 
3 *106:10 *106:12 47.3321 
4 *106:12 *106:14 15 
5 *106:14 *2212:A 23 
6 *106:14 *305:DIODE 26.48 
7 *106:10 *106:30 35.6314 
8 *106:30 *106:34 46.1336 
9 *106:34 *106:38 26.5793 
10 *106:38 *283:DIODE 23 
11 *106:38 *106:51 35.3857 
12 *106:51 *2202:B 23.6214 
13 *106:51 *106:62 49.9243 
14 *106:62 *106:68 32.3171 
15 *106:68 *2238:A 23 
16 *106:68 *372:DIODE 24.5743 
17 *106:62 *106:88 49.1371 
18 *106:88 *288:DIODE 23 
19 *106:88 *2204:A2 25.4236 
20 *106:34 *106:108 42.4257 
21 *106:108 *106:110 0.621429 
22 *106:110 *286:DIODE 25.0714 
23 *106:110 *2203:C 23 
24 *106:108 *106:130 38.5964 
25 *106:130 *106:134 29.2279 
26 *106:134 *106:140 32.2579 
27 *106:140 *2216:C 23 
28 *106:134 *317:DIODE 23 
29 *106:30 *280:DIODE 23 
30 *106:30 *2200:A_N 25.0714 
31 *106:8 *106:168 20.7793 
32 *106:168 *106:178 34.1014 
33 *106:178 *2221:A2 23 
34 *106:168 *328:DIODE 23 
*END

*D_NET *107 0.0151666
*CONN
*I *2200:B I *D sky130_fd_sc_hd__and2b_1
*I *2199:X O *D sky130_fd_sc_hd__a31o_1
*CAP
1 *2200:B 0
2 *2199:X 0.000149964
3 *107:14 0.000816182
4 *107:10 0.00290741
5 *107:8 0.00224119
6 *107:8 *179:104 0.000237027
7 *107:10 *124:22 0.00112403
8 *107:10 *151:94 0.00204314
9 *107:10 *173:18 0.000127194
10 *107:10 *175:33 6.07549e-05
11 *107:10 *183:101 0
12 *107:10 *210:125 0.000211411
13 *107:14 *182:80 0.000394186
14 *2376:RESET_B *107:14 0.000763263
15 *19:22 *107:14 0.00148832
16 *36:14 *107:10 0
17 *39:32 *107:10 0.00067346
18 *50:12 *107:10 0.00191017
19 *51:14 *107:10 0
20 *89:8 *107:10 1.88972e-05
*RES
1 *2199:X *107:8 40.5271 
2 *107:8 *107:10 53.3186 
3 *107:10 *107:14 36.1079 
4 *107:14 *2200:B 23 
*END

*D_NET *108 0.016931
*CONN
*I *2201:A I *D sky130_fd_sc_hd__buf_1
*I *281:DIODE I *D sky130_fd_sc_hd__diode_2
*I *2200:X O *D sky130_fd_sc_hd__and2b_1
*CAP
1 *2201:A 0.000124439
2 *281:DIODE 0
3 *2200:X 0.00120599
4 *108:30 0.000146526
5 *108:26 0.00094049
6 *108:22 0.00193566
7 *108:18 0.00353993
8 *108:6 0.00372866
9 *108:6 *182:80 9.32783e-05
10 *108:18 *151:61 0
11 *108:18 *154:10 7.45953e-05
12 *108:22 *2233:A2 0.000187067
13 *108:22 *2233:B1_N 9.03964e-06
14 *108:22 *187:12 0.00187059
15 *108:22 *187:16 0.000407141
16 *108:26 *220:8 0
17 *2376:RESET_B *108:6 0.000524572
18 *24:10 *108:22 5.74393e-05
19 *45:8 *2201:A 8.81259e-05
20 *45:8 *108:30 5.56356e-05
21 *45:10 *108:26 0.001824
22 *95:20 *108:18 0.000117826
*RES
1 *2200:X *108:6 37.9143 
2 *108:6 *108:18 38.1902 
3 *108:18 *108:22 40.3957 
4 *108:22 *108:26 39.4429 
5 *108:26 *108:30 15.6214 
6 *108:30 *281:DIODE 23 
7 *108:30 *2201:A 26.045 
*END

*D_NET *109 0.029141
*CONN
*I *2207:B I *D sky130_fd_sc_hd__nand2_1
*I *295:DIODE I *D sky130_fd_sc_hd__diode_2
*I *290:DIODE I *D sky130_fd_sc_hd__diode_2
*I *2205:A I *D sky130_fd_sc_hd__nor2_1
*I *2206:B I *D sky130_fd_sc_hd__or2_1
*I *293:DIODE I *D sky130_fd_sc_hd__diode_2
*I *2203:X O *D sky130_fd_sc_hd__and3_2
*CAP
1 *2207:B 0
2 *295:DIODE 0
3 *290:DIODE 0.000117975
4 *2205:A 3.73824e-05
5 *2206:B 5.67488e-05
6 *293:DIODE 4.64022e-05
7 *2203:X 5.62929e-05
8 *109:75 0.00017222
9 *109:62 0.00017222
10 *109:46 0.000570611
11 *109:28 0.000917663
12 *109:22 0.00350732
13 *109:20 0.00244588
14 *109:16 0.000504655
15 *109:12 0.00442885
16 *109:10 0.00409252
17 *109:8 5.62929e-05
18 *109:8 *211:96 2.14404e-05
19 *109:12 *129:22 9.79925e-05
20 *109:12 *129:39 0.000596342
21 *109:12 *212:96 0.000603444
22 *109:16 *112:8 0.000207481
23 *109:16 *177:170 0
24 *109:16 *192:122 0
25 *109:20 *177:170 0
26 *109:20 *192:122 0
27 *109:22 *2230:B 0.000163873
28 *109:22 *126:10 2.84201e-05
29 *109:22 *126:40 0.000242753
30 *109:22 *170:92 0.000703601
31 *109:22 *170:100 0.000735616
32 *109:22 *170:113 3.47776e-05
33 *109:22 *177:170 0
34 *109:22 *185:28 0.00213542
35 *109:22 *185:56 4.08641e-05
36 *109:22 *189:14 0.000947123
37 *109:22 *192:122 0
38 *109:28 *126:10 0.000290812
39 *109:28 *136:50 0
40 *109:28 *170:12 5.3656e-05
41 *109:28 *170:34 0.000621028
42 *109:28 *170:92 0.00024187
43 *109:75 *192:122 8.4502e-05
44 *2182:C *109:12 3.62386e-05
45 *2182:D *109:12 0.00174154
46 *2356:D *109:22 0.000237543
47 *26:38 *109:22 8.62876e-05
48 *28:20 *109:22 0.000520527
49 *28:20 *109:28 0.000141646
50 *33:39 *109:22 0.000249909
51 *47:8 *109:46 0.000535892
52 *54:12 *109:28 0
53 *81:6 *109:75 0.000183733
54 *91:18 *109:12 0.000334808
55 *106:108 *109:8 3.88725e-05
*RES
1 *2203:X *109:8 39.2014 
2 *109:8 *109:10 15 
3 *109:10 *109:12 58.7457 
4 *109:12 *109:16 22.54 
5 *109:16 *109:20 2.45464 
6 *109:20 *109:22 68.8854 
7 *109:22 *109:28 36.5429 
8 *109:28 *293:DIODE 23.6214 
9 *109:28 *2206:B 24.2014 
10 *109:22 *109:46 21.3386 
11 *109:46 *2205:A 23.8493 
12 *109:46 *290:DIODE 24.5743 
13 *109:16 *109:62 15 
14 *109:62 *295:DIODE 23 
15 *109:62 *109:75 33.2521 
16 *109:75 *2207:B 23 
*END

*D_NET *110 0.0167799
*CONN
*I *291:DIODE I *D sky130_fd_sc_hd__diode_2
*I *2205:B I *D sky130_fd_sc_hd__nor2_1
*I *2204:Y O *D sky130_fd_sc_hd__a21oi_1
*CAP
1 *291:DIODE 0
2 *2205:B 0.000120179
3 *2204:Y 0.000426032
4 *110:14 0.000592006
5 *110:10 0.0030331
6 *110:8 0.0029873
7 *110:8 *2204:A1 2.29228e-05
8 *110:8 *2204:B1 7.51453e-06
9 *110:10 *170:92 0
10 *110:10 *170:121 0.000594963
11 *110:10 *175:185 0.000197479
12 *110:10 *175:242 0.000177758
13 *110:10 *177:170 0.000536225
14 *110:10 *186:117 0
15 *110:10 *199:74 0.000553062
16 *110:10 *199:76 8.02348e-05
17 *110:10 *199:82 0.000297505
18 *110:14 *189:20 0.000405389
19 *2204:A2 *110:8 8.1796e-05
20 *41:24 *110:10 0.00475575
21 *41:28 *110:10 0.000724637
22 *47:8 *2205:B 0.000189848
23 *47:8 *110:14 4.57761e-05
24 *77:10 *110:10 0.000950443
*RES
1 *2204:Y *110:8 45.2914 
2 *110:8 *110:10 84.3071 
3 *110:10 *110:14 21.815 
4 *110:14 *2205:B 26.2521 
5 *110:14 *291:DIODE 23 
*END

*D_NET *111 0.014931
*CONN
*I *2208:B I *D sky130_fd_sc_hd__and3_1
*I *297:DIODE I *D sky130_fd_sc_hd__diode_2
*I *2206:X O *D sky130_fd_sc_hd__or2_1
*CAP
1 *2208:B 0.000122156
2 *297:DIODE 0
3 *2206:X 0.000288282
4 *111:14 0.000169241
5 *111:10 0.00409651
6 *111:8 0.00433771
7 *2208:B *2208:C 0.000110553
8 *111:8 *2206:A 5.47808e-05
9 *111:10 *113:8 0.0013705
10 *111:10 *134:141 0.000222113
11 *111:10 *141:105 0.000149433
12 *111:10 *184:155 0.000215791
13 *111:10 *184:161 0.0025357
14 *111:10 *211:10 0
15 *111:10 *211:14 0
16 *111:10 *211:60 0
17 *111:14 *2208:C 1.41077e-05
18 *58:18 *111:10 0.000391028
19 *67:26 *111:10 0.000244252
20 *81:14 *111:10 0.000200735
21 *91:14 *111:10 0.000408065
22 *102:10 *111:10 0
*RES
1 *2206:X *111:8 41.9564 
2 *111:8 *111:10 102.619 
3 *111:10 *111:14 15.6214 
4 *111:14 *297:DIODE 23 
5 *111:14 *2208:B 26.045 
*END

*D_NET *112 0.0203125
*CONN
*I *2208:C I *D sky130_fd_sc_hd__and3_1
*I *298:DIODE I *D sky130_fd_sc_hd__diode_2
*I *308:DIODE I *D sky130_fd_sc_hd__diode_2
*I *2213:A2 I *D sky130_fd_sc_hd__a21oi_1
*I *2207:Y O *D sky130_fd_sc_hd__nand2_1
*CAP
1 *2208:C 0.000232723
2 *298:DIODE 0
3 *308:DIODE 0
4 *2213:A2 0
5 *2207:Y 0.000389271
6 *112:44 0.000498746
7 *112:32 0.00024516
8 *112:24 0.00154003
9 *112:12 0.00441587
10 *112:10 0.00338702
11 *112:8 0.000389271
12 *112:8 *177:170 0
13 *112:8 *192:122 0.0002125
14 *112:12 *2225:A2 2.61526e-05
15 *112:12 *2225:B1 0.000341678
16 *112:12 *2358:CLK 0.000180218
17 *112:12 *176:102 0.000128723
18 *112:12 *184:114 0.000908863
19 *112:12 *184:121 0.000228903
20 *112:12 *184:129 2.64616e-05
21 *112:12 *184:140 0.00109848
22 *112:12 *185:80 0.00409352
23 *112:12 *185:114 3.88766e-05
24 *112:12 *209:107 0.000185874
25 *112:24 *307:DIODE 5.31899e-05
26 *112:24 *352:DIODE 5.79559e-05
27 *112:24 *115:108 0.000180172
28 *112:24 *184:38 0.000137361
29 *112:24 *185:124 5.3304e-05
30 *112:24 *191:8 0.000354867
31 *112:32 *2213:A1 0
32 *2208:B *2208:C 0.000110553
33 *28:28 *112:12 0.000223698
34 *28:40 *112:12 0.000351513
35 *109:16 *112:8 0.000207481
36 *111:14 *2208:C 1.41077e-05
*RES
1 *2207:Y *112:8 48.005 
2 *112:8 *112:10 15 
3 *112:10 *112:12 75.8971 
4 *112:12 *112:24 20.9836 
5 *112:24 *112:32 34.5364 
6 *112:32 *2213:A2 23 
7 *112:24 *308:DIODE 23 
8 *112:10 *112:44 3.95643 
9 *112:44 *298:DIODE 23 
10 *112:44 *2208:C 28.0543 
*END

*D_NET *113 0.0266915
*CONN
*I *2209:A I *D sky130_fd_sc_hd__buf_1
*I *299:DIODE I *D sky130_fd_sc_hd__diode_2
*I *2208:X O *D sky130_fd_sc_hd__and3_1
*CAP
1 *2209:A 0
2 *299:DIODE 3.21172e-05
3 *2208:X 0
4 *113:32 0.000772811
5 *113:26 0.002511
6 *113:18 0.00500256
7 *113:10 0.00323226
8 *113:8 0.00246838
9 *113:6 0.00246838
10 *299:DIODE *2242:C 5.3304e-05
11 *299:DIODE *169:40 6.17437e-06
12 *113:8 *134:141 0.000108662
13 *113:8 *141:105 0.000302339
14 *113:8 *144:8 8.62876e-05
15 *113:8 *151:10 0
16 *113:18 *117:26 5.3304e-05
17 *113:18 *202:62 3.63897e-05
18 *113:18 *211:8 0.000137625
19 *113:26 *2345:CLK 0.000110216
20 *113:26 *116:34 0.00075469
21 *113:26 *116:50 0.000228923
22 *113:26 *116:58 9.64943e-05
23 *113:26 *117:26 0.000252286
24 *113:26 *174:139 2.02872e-05
25 *113:26 *174:156 0.000200124
26 *113:26 *202:32 0.000298503
27 *113:26 *202:62 0.000701014
28 *113:32 *2242:A 5.67058e-05
29 *113:32 *2242:C 0.00030373
30 *113:32 *169:40 0.000779768
31 *113:32 *184:54 0.000339893
32 *113:32 *186:36 0.000325352
33 *113:32 *204:112 0.000125544
34 *113:32 *204:120 0.000179936
35 *2345:RESET_B *113:26 3.58084e-06
36 *39:24 *113:18 0.000107563
37 *48:8 *113:32 0.00043515
38 *48:18 *113:18 0.000892482
39 *80:14 *113:18 0.000549624
40 *100:162 *113:8 0
41 *102:10 *113:8 0.0012875
42 *111:10 *113:8 0.0013705
*RES
1 *2208:X *113:6 38 
2 *113:6 *113:8 65.9957 
3 *113:8 *113:10 15 
4 *113:10 *113:18 43.0857 
5 *113:18 *113:26 46.1543 
6 *113:26 *113:32 36.5429 
7 *113:32 *299:DIODE 23.6214 
8 *113:32 *2209:A 23 
*END

*D_NET *114 0.0147597
*CONN
*I *2213:A1 I *D sky130_fd_sc_hd__a21oi_1
*I *307:DIODE I *D sky130_fd_sc_hd__diode_2
*I *2210:Y O *D sky130_fd_sc_hd__inv_2
*CAP
1 *2213:A1 0.000284373
2 *307:DIODE 7.98774e-05
3 *2210:Y 0
4 *114:10 0.00301194
5 *114:8 0.00264769
6 *114:6 0.00218863
7 *114:4 0.00218863
8 *2213:A1 *2213:B1 5.50049e-05
9 *114:6 *119:38 0.000354109
10 *114:6 *141:36 0.00132058
11 *114:6 *186:58 0.00048871
12 *114:6 *191:40 0.000941092
13 *114:6 *191:72 0.000157332
14 *114:6 *195:38 0.000313028
15 *114:10 *140:14 0
16 *114:10 *153:69 3.3123e-05
17 *37:10 *114:10 0.00064241
18 *67:16 *2213:A1 0
19 *67:16 *114:10 0
20 *112:24 *307:DIODE 5.31899e-05
21 *112:32 *2213:A1 0
*RES
1 *2210:Y *114:4 23 
2 *114:4 *114:6 46.3586 
3 *114:6 *114:8 15 
4 *114:8 *114:10 55.7836 
5 *114:10 *307:DIODE 39.0979 
6 *114:10 *2213:A1 42.5364 
*END

*D_NET *115 0.0398233
*CONN
*I *2216:D I *D sky130_fd_sc_hd__and4_1
*I *318:DIODE I *D sky130_fd_sc_hd__diode_2
*I *373:DIODE I *D sky130_fd_sc_hd__diode_2
*I *2238:B I *D sky130_fd_sc_hd__and4_1
*I *306:DIODE I *D sky130_fd_sc_hd__diode_2
*I *2212:B I *D sky130_fd_sc_hd__and2_2
*I *329:DIODE I *D sky130_fd_sc_hd__diode_2
*I *2221:A3 I *D sky130_fd_sc_hd__a31o_1
*I *2211:X O *D sky130_fd_sc_hd__and4_2
*CAP
1 *2216:D 0.000119783
2 *318:DIODE 0
3 *373:DIODE 2.86893e-05
4 *2238:B 0
5 *306:DIODE 0
6 *2212:B 8.09874e-05
7 *329:DIODE 0
8 *2221:A3 0.000123948
9 *2211:X 0
10 *115:112 0.000181622
11 *115:108 0.00100906
12 *115:80 0.000265297
13 *115:70 0.00048294
14 *115:66 0.00251055
15 *115:60 0.00240464
16 *115:54 0.00230978
17 *115:38 9.11921e-05
18 *115:34 0.00202984
19 *115:32 0.004345
20 *115:14 0.000222589
21 *115:12 0.00157962
22 *115:6 0.00252685
23 *373:DIODE *216:14 4.44329e-05
24 *2212:B *116:8 4.69521e-05
25 *2212:B *122:31 0.00026457
26 *2216:D *116:84 1.31479e-05
27 *2216:D *118:20 7.07519e-05
28 *2221:A3 *123:8 9.46497e-05
29 *2221:A3 *213:72 0.000209134
30 *115:12 *116:72 0.000428503
31 *115:12 *172:133 0.000349386
32 *115:12 *184:26 0.000149235
33 *115:12 *191:12 0.00290928
34 *115:12 *191:14 0.000269711
35 *115:12 *193:72 7.33432e-05
36 *115:32 *116:72 7.21558e-05
37 *115:32 *123:8 4.67488e-05
38 *115:32 *213:72 8.264e-05
39 *115:32 *214:38 1.61305e-05
40 *115:32 *214:53 1.75427e-05
41 *115:34 *116:14 0.000895791
42 *115:34 *116:72 0.0014223
43 *115:34 *158:22 0.000211312
44 *115:34 *190:52 6.16531e-05
45 *115:34 *190:63 0.00140811
46 *115:34 *198:36 0.000443833
47 *115:34 *214:38 0.0012587
48 *115:34 *219:16 0.000220684
49 *115:38 *122:31 5.50049e-05
50 *115:54 *141:22 0.000124492
51 *115:54 *141:28 0.00187362
52 *115:54 *191:50 0.000179473
53 *115:54 *191:52 1.56762e-05
54 *115:54 *192:38 0.000259337
55 *115:54 *213:72 6.53382e-05
56 *115:60 *117:14 0.00012915
57 *115:60 *123:12 0.00012915
58 *115:66 *154:10 5.90667e-05
59 *115:66 *160:6 0.000328764
60 *115:66 *161:10 1.22803e-05
61 *115:66 *180:82 0.000135037
62 *115:66 *204:57 0.00026175
63 *115:66 *215:8 0.00169156
64 *115:70 *156:140 0.000140259
65 *115:70 *156:153 8.76309e-05
66 *115:70 *216:14 0.000441057
67 *115:80 *466:DIODE 0
68 *115:80 *2238:C 0.000271906
69 *115:80 *128:14 0.000186813
70 *115:80 *133:10 5.58152e-06
71 *115:80 *204:45 0.000231039
72 *115:108 *2231:C 0.000355822
73 *115:108 *185:124 5.3304e-05
74 *115:108 *191:8 0.000272587
75 *115:108 *191:12 0.000329212
76 *115:108 *193:72 0.000202316
77 *305:DIODE *2212:B 0.000182222
78 *305:DIODE *115:38 4.46854e-05
79 *18:10 *115:12 0
80 *31:14 *115:108 2.72055e-05
81 *55:26 *115:66 1.01436e-05
82 *67:16 *115:112 8.85189e-05
83 *74:10 *115:34 0
84 *112:24 *115:108 0.000180172
*RES
1 *2211:X *115:6 38 
2 *115:6 *115:12 43.8729 
3 *115:12 *115:14 15 
4 *115:14 *2221:A3 26.0036 
5 *115:14 *329:DIODE 23 
6 *115:14 *115:32 17.2993 
7 *115:32 *115:34 58.2486 
8 *115:34 *115:38 15.6214 
9 *115:38 *2212:B 26.0036 
10 *115:38 *306:DIODE 23 
11 *115:32 *115:54 45.6364 
12 *115:54 *115:60 31.9057 
13 *115:60 *115:66 47.045 
14 *115:66 *115:70 19.9093 
15 *115:70 *115:80 36.5871 
16 *115:80 *2238:B 23 
17 *115:70 *373:DIODE 23.6214 
18 *115:6 *115:108 49.5957 
19 *115:108 *115:112 16.2014 
20 *115:112 *318:DIODE 23 
21 *115:112 *2216:D 24.5743 
*END

*D_NET *116 0.0314546
*CONN
*I *311:DIODE I *D sky130_fd_sc_hd__diode_2
*I *2214:A2 I *D sky130_fd_sc_hd__o21ai_1
*I *309:DIODE I *D sky130_fd_sc_hd__diode_2
*I *2213:B1 I *D sky130_fd_sc_hd__a21oi_1
*I *314:DIODE I *D sky130_fd_sc_hd__diode_2
*I *2215:A2 I *D sky130_fd_sc_hd__a21oi_1
*I *2212:X O *D sky130_fd_sc_hd__and2_2
*CAP
1 *311:DIODE 0
2 *2214:A2 0.000113991
3 *309:DIODE 0
4 *2213:B1 8.17377e-05
5 *314:DIODE 0
6 *2215:A2 0
7 *2212:X 0.000178828
8 *116:98 0.000509559
9 *116:84 0.000266522
10 *116:78 0.00181148
11 *116:76 0.0025336
12 *116:72 0.00244211
13 *116:58 8.32454e-05
14 *116:50 0.00128071
15 *116:34 0.00286045
16 *116:14 0.0042428
17 *116:8 0.00161901
18 *2214:A2 *2214:A1 7.19932e-05
19 *116:8 *122:31 3.09094e-05
20 *116:14 *2242:A 0.000113584
21 *116:14 *2256:B 0.0001106
22 *116:14 *144:56 0.000373223
23 *116:14 *189:56 0.000676836
24 *116:14 *190:52 6.38845e-05
25 *116:14 *190:63 0.00139665
26 *116:14 *191:16 5.94908e-05
27 *116:34 *2269:A 1.47394e-05
28 *116:34 *2269:B 5.50106e-05
29 *116:34 *120:14 6.32785e-05
30 *116:34 *130:60 8.62449e-06
31 *116:34 *153:30 8.264e-05
32 *116:34 *186:22 4.07138e-06
33 *116:34 *186:36 6.3704e-06
34 *116:34 *201:48 6.07863e-05
35 *116:34 *209:10 6.59159e-05
36 *116:50 *2345:CLK 2.79543e-05
37 *116:50 *117:26 0.000404249
38 *116:50 *162:8 4.44951e-05
39 *116:50 *174:139 2.02872e-05
40 *116:50 *174:156 0.000219383
41 *116:50 *209:140 7.87027e-05
42 *116:58 *117:26 9.41704e-05
43 *116:58 *213:190 5.73834e-05
44 *116:72 *158:22 0.00023265
45 *116:72 *172:133 0.000349386
46 *116:72 *191:14 0.00033338
47 *116:72 *191:16 0.000307135
48 *116:72 *214:53 1.30346e-05
49 *116:78 *385:DIODE 1.06693e-05
50 *116:78 *136:16 0.000345766
51 *116:78 *140:14 0
52 *116:78 *184:34 0.000113777
53 *116:78 *185:124 0.000240873
54 *116:78 *187:68 0.000725424
55 *116:78 *187:86 7.51025e-05
56 *116:78 *213:130 4.6318e-06
57 *116:84 *118:20 0.00014529
58 *305:DIODE *116:8 0.000141347
59 *556:DIODE *116:50 0.000207853
60 *2212:B *116:8 4.69521e-05
61 *2213:A1 *2213:B1 5.50049e-05
62 *2216:D *116:84 1.31479e-05
63 *2345:RESET_B *116:34 0.000105323
64 *2345:RESET_B *116:50 0.000180224
65 *2359:D *116:34 6.225e-06
66 *2359:RESET_B *116:72 0.000163352
67 *17:8 *116:78 0
68 *18:10 *116:72 0
69 *38:10 *116:34 5.58975e-06
70 *46:10 *116:50 1.14452e-05
71 *49:8 *2213:B1 6.65175e-05
72 *49:8 *116:84 0.000447436
73 *67:16 *116:78 0
74 *74:10 *116:14 0
75 *75:10 *116:72 8.62783e-05
76 *95:20 *116:58 0
77 *100:75 *2214:A2 0.000199
78 *100:75 *116:76 0.000399729
79 *100:75 *116:98 0.000230634
80 *106:12 *116:14 2.68706e-05
81 *106:140 *116:78 3.64246e-05
82 *113:26 *116:34 0.00075469
83 *113:26 *116:50 0.000228923
84 *113:26 *116:58 9.64943e-05
85 *115:12 *116:72 0.000428503
86 *115:32 *116:72 7.21558e-05
87 *115:34 *116:14 0.000895791
88 *115:34 *116:72 0.0014223
*RES
1 *2212:X *116:8 41.48 
2 *116:8 *116:14 40.5275 
3 *116:14 *116:34 47.8253 
4 *116:34 *116:50 49.43 
5 *116:50 *116:58 31.9471 
6 *116:58 *2215:A2 23 
7 *116:50 *314:DIODE 23 
8 *116:14 *116:72 47.3661 
9 *116:72 *116:76 26.1029 
10 *116:76 *116:78 38.8807 
11 *116:78 *116:84 20.7586 
12 *116:84 *2213:B1 25.0507 
13 *116:84 *309:DIODE 23 
14 *116:72 *116:98 5.86214 
15 *116:98 *2214:A2 26.625 
16 *116:98 *311:DIODE 23 
*END

*D_NET *117 0.0123149
*CONN
*I *2215:B1 I *D sky130_fd_sc_hd__a21oi_1
*I *2214:Y O *D sky130_fd_sc_hd__o21ai_1
*CAP
1 *2215:B1 0
2 *2214:Y 0.00157594
3 *117:26 0.00075957
4 *117:14 0.00174739
5 *117:10 0.00256376
6 *117:10 *210:76 0.000136349
7 *117:14 *123:12 7.09173e-05
8 *117:14 *144:37 0
9 *117:14 *159:16 0.000580566
10 *117:14 *167:26 0.00109469
11 *117:14 *171:62 0.000549613
12 *117:14 *202:18 0.00133273
13 *117:14 *217:20 2.05503e-05
14 *117:26 *2215:A1 9.41704e-05
15 *117:26 *138:26 0
16 *117:26 *159:16 0.000150359
17 *117:26 *171:82 7.51431e-06
18 *7:17 *117:14 0.000132483
19 *55:18 *117:14 3.2905e-05
20 *60:12 *117:14 4.9274e-05
21 *75:32 *117:26 0
22 *94:18 *117:26 4.03654e-05
23 *95:20 *117:26 0
24 *100:75 *117:10 6.17437e-06
25 *100:84 *117:10 0.000100236
26 *100:99 *117:10 0.000336141
27 *113:18 *117:26 5.3304e-05
28 *113:26 *117:26 0.000252286
29 *115:60 *117:14 0.00012915
30 *116:50 *117:26 0.000404249
31 *116:58 *117:26 9.41704e-05
*RES
1 *2214:Y *117:10 47.1321 
2 *117:10 *117:14 43.4925 
3 *117:14 *117:26 40.0213 
4 *117:26 *2215:B1 23 
*END

*D_NET *118 0.0165646
*CONN
*I *2217:A I *D sky130_fd_sc_hd__clkbuf_4
*I *2216:X O *D sky130_fd_sc_hd__and4_1
*CAP
1 *2217:A 0.000194904
2 *2216:X 0.000537586
3 *118:26 0.00192904
4 *118:24 0.00248547
5 *118:20 0.00128893
6 *2217:A *148:14 9.43908e-05
7 *2217:A *172:214 0.000384544
8 *2217:A *178:93 0.000555779
9 *118:20 *2216:B 0.000395437
10 *118:20 *2244:A 5.50049e-05
11 *118:20 *2335:A 2.02517e-05
12 *118:24 *2246:C 4.75206e-05
13 *118:24 *2335:A 2.4754e-05
14 *118:24 *122:73 2.02872e-05
15 *118:24 *137:6 6.9805e-05
16 *118:24 *138:54 1.59094e-05
17 *118:24 *139:8 0.000441978
18 *118:24 *145:6 5.46873e-05
19 *118:24 *210:58 0.000446495
20 *118:26 *2181:B 0.000140731
21 *118:26 *125:12 2.11849e-05
22 *118:26 *144:37 0.00096474
23 *118:26 *171:62 0.000145728
24 *118:26 *171:226 0.00131201
25 *118:26 *172:184 0.000462074
26 *118:26 *200:48 9.96611e-05
27 *118:26 *202:86 0.000208076
28 *118:26 *210:10 0
29 *118:26 *210:52 0
30 *2195:A *118:20 0.000167067
31 *2216:D *118:20 7.07519e-05
32 *49:8 *118:20 0.000371681
33 *49:8 *118:24 0.00153327
34 *60:8 *118:26 0
35 *63:12 *118:26 8.65966e-05
36 *83:6 *118:24 0.00165848
37 *93:10 *118:26 0
38 *97:24 *118:26 0.000114489
39 *116:84 *118:20 0.00014529
*RES
1 *2216:X *118:20 38.7843 
2 *118:20 *118:24 45.16 
3 *118:24 *118:26 42.05 
4 *118:26 *2217:A 44.3386 
*END

*D_NET *119 0.044873
*CONN
*I *337:DIODE I *D sky130_fd_sc_hd__diode_2
*I *2225:A2 I *D sky130_fd_sc_hd__a21o_1
*I *2232:A I *D sky130_fd_sc_hd__and2_2
*I *356:DIODE I *D sky130_fd_sc_hd__diode_2
*I *2230:D I *D sky130_fd_sc_hd__and4_1
*I *351:DIODE I *D sky130_fd_sc_hd__diode_2
*I *2226:C I *D sky130_fd_sc_hd__nand3_2
*I *341:DIODE I *D sky130_fd_sc_hd__diode_2
*I *2223:A I *D sky130_fd_sc_hd__nor2_1
*I *333:DIODE I *D sky130_fd_sc_hd__diode_2
*I *335:DIODE I *D sky130_fd_sc_hd__diode_2
*I *2224:B I *D sky130_fd_sc_hd__xor2_2
*I *2217:X O *D sky130_fd_sc_hd__clkbuf_4
*CAP
1 *337:DIODE 0.000156555
2 *2225:A2 0.000105311
3 *2232:A 0.000115872
4 *356:DIODE 4.99221e-05
5 *2230:D 5.09206e-05
6 *351:DIODE 0
7 *2226:C 0.000658749
8 *341:DIODE 0
9 *2223:A 2.06917e-05
10 *333:DIODE 0
11 *335:DIODE 0
12 *2224:B 0.000172201
13 *2217:X 0.000338825
14 *119:185 0.000563424
15 *119:174 0.000461168
16 *119:163 0.000591303
17 *119:133 0.00155062
18 *119:119 0.000983887
19 *119:115 0.001263
20 *119:97 0.0014028
21 *119:87 0.000780383
22 *119:85 0.00128577
23 *119:62 0.000268588
24 *119:44 0.000569227
25 *119:40 0.00239361
26 *119:38 0.00327249
27 *119:26 0.00110437
28 *119:24 0.00107574
29 *119:8 0.00258259
30 *337:DIODE *205:90 0.000101708
31 *337:DIODE *210:58 2.7237e-05
32 *2224:B *122:31 0.000409803
33 *2225:A2 *2225:B1 5.35107e-05
34 *2225:A2 *125:6 0.000185434
35 *2225:A2 *184:129 5.3304e-05
36 *2225:A2 *209:107 0.000400204
37 *2226:C *2226:A 0.000396695
38 *2226:C *126:8 1.03836e-05
39 *2226:C *184:161 9.5877e-05
40 *2226:C *185:44 2.93431e-05
41 *2226:C *216:14 6.22712e-05
42 *2230:D *2230:B 3.59414e-05
43 *2230:D *2230:C 0.000138607
44 *2230:D *195:140 5.56279e-05
45 *2232:A *129:22 1.41129e-05
46 *2232:A *129:39 0.000358467
47 *119:8 *178:93 0.000271906
48 *119:24 *2353:CLK 4.17992e-05
49 *119:24 *124:22 9.82917e-05
50 *119:24 *159:6 0.000285453
51 *119:24 *162:20 2.01531e-05
52 *119:24 *175:33 1.00286e-05
53 *119:24 *180:94 0.00023039
54 *119:24 *203:96 0
55 *119:24 *208:12 0.000392314
56 *119:24 *208:32 0.000617269
57 *119:26 *159:6 0.000133172
58 *119:38 *300:DIODE 2.82035e-05
59 *119:38 *2210:A 0.00022288
60 *119:38 *159:6 0.000171019
61 *119:38 *191:72 5.61255e-06
62 *119:38 *202:18 0.000219258
63 *119:40 *122:43 0.000217044
64 *119:40 *122:45 0.000131999
65 *119:40 *162:8 0.00167604
66 *119:40 *181:32 0
67 *119:40 *183:57 0.00015002
68 *119:40 *183:63 1.0092e-05
69 *119:44 *2197:B 5.5792e-05
70 *119:44 *2197:D 5.00237e-05
71 *119:44 *122:31 2.95526e-05
72 *119:44 *184:99 3.2277e-05
73 *119:62 *157:25 0.000236355
74 *119:85 *2372:CLK 9.47033e-05
75 *119:85 *158:10 1.05658e-05
76 *119:85 *162:20 7.8128e-05
77 *119:85 *177:136 6.97326e-05
78 *119:85 *203:96 0.000343929
79 *119:85 *208:12 8.09921e-05
80 *119:97 *150:29 1.1997e-05
81 *119:97 *155:8 0.000390685
82 *119:97 *155:14 7.71219e-06
83 *119:97 *177:136 6.17437e-06
84 *119:97 *185:78 2.5597e-05
85 *119:97 *202:96 0.000475031
86 *119:97 *216:10 5.58473e-05
87 *119:115 *2230:B 0.000226306
88 *119:115 *2230:C 1.41129e-05
89 *119:115 *2271:C 0.000225901
90 *119:115 *128:10 0.000571538
91 *119:115 *170:113 0.000310867
92 *119:115 *170:121 5.3304e-05
93 *119:115 *199:40 0.000184741
94 *119:115 *199:59 1.03955e-05
95 *119:115 *202:96 0.000269994
96 *119:119 *170:100 0.000101708
97 *119:119 *170:113 8.62783e-05
98 *119:119 *192:122 0.000187986
99 *119:133 *126:40 0.000765549
100 *119:133 *170:100 0.00123151
101 *119:133 *192:120 0.000714906
102 *119:133 *192:122 0.00109097
103 *119:133 *211:60 0.00037927
104 *119:133 *216:14 5.25848e-05
105 *119:163 *185:78 0.00022438
106 *119:163 *205:90 0.000218382
107 *119:174 *205:90 4.90185e-05
108 *119:185 *205:90 0.000458709
109 *2182:C *2232:A 5.5792e-05
110 *2356:RESET_B *119:133 0.000137182
111 *10:10 *2226:C 3.24862e-05
112 *21:20 *2224:B 0.000149361
113 *21:20 *119:44 0.000368385
114 *23:14 *119:8 0.000135037
115 *23:20 *119:24 0.000371972
116 *26:32 *119:24 8.62783e-05
117 *47:14 *119:8 0.000730283
118 *51:8 *119:24 8.17328e-05
119 *51:8 *119:26 1.24376e-05
120 *67:26 *119:133 0.000378759
121 *70:10 *119:40 0
122 *73:16 *119:40 0.000608892
123 *80:8 *119:24 0.000100133
124 *80:8 *119:26 0.000106277
125 *80:14 *119:24 8.9728e-05
126 *88:18 *119:40 0.00030189
127 *91:18 *356:DIODE 5.3304e-05
128 *91:18 *2232:A 0.000442688
129 *92:8 *119:85 0
130 *100:125 *119:85 0.0014661
131 *101:10 *119:185 0
132 *101:24 *119:40 0.000120999
133 *103:34 *119:163 0
134 *103:34 *119:185 0
135 *105:10 *119:40 0
136 *112:12 *2225:A2 2.61526e-05
137 *114:6 *119:38 0.000354109
*RES
1 *2217:X *119:8 46.2443 
2 *119:8 *119:24 39.5671 
3 *119:24 *119:26 3.00357 
4 *119:26 *119:38 33.1043 
5 *119:38 *119:40 51.5579 
6 *119:40 *119:44 19.9093 
7 *119:44 *2224:B 5.95536 
8 *119:44 *119:62 34.4329 
9 *119:62 *335:DIODE 23 
10 *119:26 *333:DIODE 23 
11 *119:24 *2223:A 23.4971 
12 *119:8 *119:85 44.0207 
13 *119:85 *119:87 15 
14 *119:87 *119:97 37.5607 
15 *119:97 *119:115 37.9307 
16 *119:115 *119:119 17.61 
17 *119:119 *119:133 48.4121 
18 *119:133 *341:DIODE 23 
19 *119:133 *2226:C 33.0464 
20 *119:119 *351:DIODE 38 
21 *119:115 *2230:D 24.5743 
22 *119:87 *119:163 10.005 
23 *119:163 *356:DIODE 38.6214 
24 *119:163 *119:174 0.849286 
25 *119:174 *2232:A 42.9093 
26 *119:174 *119:185 6.48357 
27 *119:185 *2225:A2 42.93 
28 *119:185 *337:DIODE 40.6514 
*END

*D_NET *120 0.015712
*CONN
*I *2220:B I *D sky130_fd_sc_hd__or3_4
*I *2218:X O *D sky130_fd_sc_hd__or4b_1
*CAP
1 *2220:B 0
2 *2218:X 0
3 *120:20 0.000608865
4 *120:16 0.00219274
5 *120:14 0.0033749
6 *120:6 0.00179102
7 *120:14 *149:10 2.26159e-05
8 *120:14 *184:54 0
9 *120:14 *195:64 0.000148123
10 *120:14 *209:10 0.000108625
11 *120:16 *2330:A 6.16531e-05
12 *120:16 *131:44 0.000194082
13 *120:16 *172:64 0.00031931
14 *120:16 *174:28 6.04593e-05
15 *120:16 *184:84 4.96264e-05
16 *120:16 *185:84 0.000925838
17 *120:16 *188:24 1.40672e-05
18 *120:16 *188:30 0.000359648
19 *120:16 *188:34 2.68872e-05
20 *120:16 *196:44 0.00024349
21 *120:16 *204:112 0.000108681
22 *120:20 *181:46 0.000350485
23 *120:20 *181:56 0.000273275
24 *2220:A *120:20 0.000231499
25 *75:22 *120:14 0.00123425
26 *94:43 *120:20 0.00183179
27 *100:8 *120:20 0.00111679
28 *116:34 *120:14 6.32785e-05
*RES
1 *2218:X *120:6 38 
2 *120:6 *120:14 36.8525 
3 *120:14 *120:16 36.9439 
4 *120:16 *120:20 38.0136 
5 *120:20 *2220:B 23 
*END

*D_NET *121 0.0132329
*CONN
*I *2220:C I *D sky130_fd_sc_hd__or3_4
*I *2219:X O *D sky130_fd_sc_hd__or4_1
*CAP
1 *2220:C 0
2 *2219:X 0.000399362
3 *121:20 0.0020905
4 *121:12 0.00263265
5 *121:8 0.00094151
6 *121:8 *159:40 0.000138859
7 *121:8 *212:32 5.79559e-05
8 *121:8 *213:24 9.66668e-05
9 *121:12 *159:24 0.000106419
10 *121:20 *343:DIODE 5.56356e-05
11 *121:20 *157:31 1.76557e-05
12 *121:20 *184:58 0.00038734
13 *121:20 *184:60 0.000212168
14 *121:20 *184:68 0.000268129
15 *121:20 *184:99 0.000390102
16 *121:20 *218:14 0.00220643
17 *256:DIODE *121:20 5.3304e-05
18 *2188:D *121:20 0.000518218
19 *2220:A *121:20 4.96733e-05
20 *60:12 *121:12 0.000670465
21 *94:26 *121:20 4.08664e-05
22 *94:41 *121:12 3.33144e-05
23 *94:41 *121:20 2.18409e-05
24 *94:43 *121:20 0.000323571
25 *95:24 *121:8 0.000229801
26 *96:20 *121:8 0.000200081
27 *98:14 *121:12 0.000465704
28 *98:14 *121:20 0.000624679
*RES
1 *2219:X *121:8 46.2443 
2 *121:8 *121:12 29.2307 
3 *121:12 *121:20 48.8029 
4 *121:20 *2220:C 23 
*END

*D_NET *122 0.0391989
*CONN
*I *2227:A I *D sky130_fd_sc_hd__and3_1
*I *331:DIODE I *D sky130_fd_sc_hd__diode_2
*I *2222:A I *D sky130_fd_sc_hd__nand2_1
*I *2246:A I *D sky130_fd_sc_hd__and3_1
*I *390:DIODE I *D sky130_fd_sc_hd__diode_2
*I *2235:C1 I *D sky130_fd_sc_hd__o211a_1
*I *365:DIODE I *D sky130_fd_sc_hd__diode_2
*I *342:DIODE I *D sky130_fd_sc_hd__diode_2
*I *2220:X O *D sky130_fd_sc_hd__or3_4
*CAP
1 *2227:A 2.56786e-05
2 *331:DIODE 5.76603e-05
3 *2222:A 4.22989e-05
4 *2246:A 0
5 *390:DIODE 3.27378e-05
6 *2235:C1 0
7 *365:DIODE 0
8 *342:DIODE 0
9 *2220:X 0.000215212
10 *122:87 0.00150909
11 *122:73 0.000438975
12 *122:57 0.000182729
13 *122:49 0.00050906
14 *122:45 0.00327867
15 *122:43 0.00305643
16 *122:37 0.00265246
17 *122:31 0.00229756
18 *122:22 0.00172694
19 *122:14 0.000259633
20 *122:10 0.00028679
21 *2227:A *2295:A1 8.68168e-05
22 *2227:A *2295:B1 2.93431e-05
23 *2227:A *182:46 1.59071e-05
24 *122:10 *495:DIODE 2.08324e-05
25 *122:10 *167:48 0.000113614
26 *122:10 *181:56 0
27 *122:10 *218:10 0
28 *122:14 *2295:A1 0.000365075
29 *122:14 *2295:B1 7.12636e-05
30 *122:14 *181:56 0.000191255
31 *122:14 *218:10 9.03964e-06
32 *122:22 *495:DIODE 0
33 *122:22 *188:42 0
34 *122:31 *494:DIODE 4.24646e-05
35 *122:31 *2236:A 6.62374e-05
36 *122:31 *2236:B 0.000228903
37 *122:31 *184:99 5.50049e-05
38 *122:31 *196:52 0.000366775
39 *122:37 *149:10 0.000261785
40 *122:37 *182:44 6.84517e-05
41 *122:37 *184:99 0.000416976
42 *122:37 *198:28 0.000138727
43 *122:45 *145:10 0.000791831
44 *122:45 *178:97 0.000404976
45 *122:49 *2235:A2 0.000399662
46 *122:49 *2235:B1 0.000179725
47 *122:49 *130:20 0.000920587
48 *122:49 *211:111 3.60531e-05
49 *122:49 *212:96 0.00105405
50 *122:57 *138:32 0.000360955
51 *122:57 *176:102 0.000183785
52 *122:57 *185:84 0.000181657
53 *122:57 *188:110 0.000186032
54 *122:57 *209:75 0.00015711
55 *122:73 *2246:C 0.000167926
56 *122:73 *145:10 0.000157748
57 *122:87 *124:8 0.000853299
58 *305:DIODE *122:31 5.00237e-05
59 *603:DIODE *122:43 4.95928e-05
60 *2188:D *122:37 0.000138718
61 *2212:B *122:31 0.00026457
62 *2224:B *122:31 0.000409803
63 *26:8 *122:31 2.19403e-05
64 *27:10 *122:37 0.000168139
65 *33:16 *122:37 0.000303724
66 *33:16 *122:87 0.00185043
67 *33:22 *331:DIODE 4.57742e-05
68 *33:22 *122:87 2.38751e-05
69 *41:20 *331:DIODE 0.000125213
70 *41:20 *122:87 0.000638486
71 *70:10 *122:37 2.68708e-05
72 *70:10 *122:43 0
73 *73:16 *122:45 0.00226637
74 *82:18 *122:43 2.42569e-05
75 *82:18 *122:45 0.00385933
76 *83:6 *390:DIODE 5.50049e-05
77 *83:6 *122:73 0.0002246
78 *83:12 *122:45 0.000808596
79 *83:12 *122:73 0.000559294
80 *88:18 *122:43 0.000232729
81 *88:18 *122:45 3.31053e-05
82 *99:21 *122:37 0.000646782
83 *101:24 *122:43 4.44897e-05
84 *101:24 *122:45 0.000576242
85 *105:10 *122:43 0.00011036
86 *115:38 *122:31 5.50049e-05
87 *116:8 *122:31 3.09094e-05
88 *118:24 *122:73 2.02872e-05
89 *119:40 *122:43 0.000217044
90 *119:40 *122:45 0.000131999
91 *119:44 *122:31 2.95526e-05
*RES
1 *2220:X *122:10 41.9357 
2 *122:10 *122:14 18.9564 
3 *122:14 *122:22 32.5271 
4 *122:22 *342:DIODE 23 
5 *122:22 *122:31 45.16 
6 *122:31 *122:37 34.4714 
7 *122:37 *122:43 25.6264 
8 *122:43 *122:45 75.5036 
9 *122:45 *122:49 29.4379 
10 *122:49 *122:57 36.5664 
11 *122:57 *365:DIODE 23 
12 *122:49 *2235:C1 23 
13 *122:45 *122:73 25.8957 
14 *122:73 *390:DIODE 23.6214 
15 *122:73 *2246:A 23 
16 *122:37 *122:87 31.1129 
17 *122:87 *2222:A 23.8493 
18 *122:87 *331:DIODE 24.5743 
19 *122:14 *2227:A 24.0979 
*END

*D_NET *123 0.0186937
*CONN
*I *2222:B I *D sky130_fd_sc_hd__nand2_1
*I *332:DIODE I *D sky130_fd_sc_hd__diode_2
*I *2221:X O *D sky130_fd_sc_hd__a31o_1
*CAP
1 *2222:B 7.26603e-05
2 *332:DIODE 0
3 *2221:X 0
4 *123:20 0.00161277
5 *123:12 0.00294024
6 *123:8 0.00397908
7 *123:4 0.00257895
8 *2222:B *124:8 0.000177604
9 *123:8 *612:DIODE 2.56967e-05
10 *123:8 *141:28 0.000235987
11 *123:8 *213:72 5.97296e-05
12 *123:8 *213:79 1.59094e-05
13 *123:8 *213:92 0.000158006
14 *123:8 *215:8 0.000839925
15 *123:8 *218:76 2.81066e-05
16 *123:12 *167:26 0.00144238
17 *123:12 *174:209 0.000138718
18 *123:12 *202:32 0.000114083
19 *123:20 *132:18 0.000152317
20 *123:20 *175:64 0.000174008
21 *123:20 *190:44 4.76697e-05
22 *2221:A3 *123:8 9.46497e-05
23 *7:17 *123:12 0.000157052
24 *7:17 *123:20 2.75168e-05
25 *33:22 *2222:B 0.000175903
26 *55:12 *123:12 0.000742185
27 *55:18 *123:12 0.00122872
28 *71:18 *123:20 0.000347283
29 *98:14 *123:12 0.000879777
30 *115:32 *123:8 4.67488e-05
31 *115:60 *123:12 0.00012915
32 *117:14 *123:12 7.09173e-05
*RES
1 *2221:X *123:4 23 
2 *123:4 *123:8 48.0186 
3 *123:8 *123:12 48.8175 
4 *123:12 *123:20 28.7529 
5 *123:20 *332:DIODE 23 
6 *123:20 *2222:B 25.0507 
*END

*D_NET *124 0.00987346
*CONN
*I *2223:B I *D sky130_fd_sc_hd__nor2_1
*I *2222:Y O *D sky130_fd_sc_hd__nand2_1
*CAP
1 *2223:B 0
2 *2222:Y 0.000296545
3 *124:22 0.000699747
4 *124:16 0.00159448
5 *124:8 0.00119128
6 *124:16 *2380:A 0
7 *124:16 *169:94 0.000175903
8 *124:16 *210:101 0.000688057
9 *124:22 *2353:CLK 2.53488e-05
10 *124:22 *173:18 0.000110915
11 *124:22 *175:33 0.00127639
12 *2222:B *124:8 0.000177604
13 *33:22 *124:8 0.000357383
14 *39:32 *124:22 7.51095e-05
15 *50:12 *124:16 0.000205222
16 *51:12 *124:16 7.34511e-05
17 *51:14 *124:16 0
18 *80:8 *124:22 0.000138607
19 *89:8 *124:16 0.000711786
20 *107:10 *124:22 0.00112403
21 *119:24 *124:22 9.82917e-05
22 *122:87 *124:8 0.000853299
*RES
1 *2222:Y *124:8 47.6736 
2 *124:8 *124:16 48.3943 
3 *124:16 *124:22 34.6786 
4 *124:22 *2223:B 23 
*END

*D_NET *125 0.0330522
*CONN
*I *343:DIODE I *D sky130_fd_sc_hd__diode_2
*I *2227:B I *D sky130_fd_sc_hd__and3_1
*I *2225:X O *D sky130_fd_sc_hd__a21o_1
*CAP
1 *343:DIODE 4.33954e-05
2 *2227:B 0.000297303
3 *2225:X 0.000498857
4 *125:26 0.00126332
5 *125:24 0.00109656
6 *125:18 0.00124259
7 *125:16 0.00106864
8 *125:14 0.00183707
9 *125:12 0.00243422
10 *125:6 0.00109601
11 *2227:B *127:12 2.24608e-05
12 *2227:B *182:46 5.73288e-05
13 *2227:B *188:42 7.71687e-05
14 *125:6 *2225:B1 0.000267167
15 *125:6 *185:80 0.00182381
16 *125:6 *209:107 0.00103933
17 *125:12 *170:135 0.000160125
18 *125:12 *170:151 0.000623966
19 *125:12 *171:226 0.000275692
20 *125:14 *169:22 0.000128858
21 *125:14 *187:76 6.17437e-06
22 *125:18 *127:20 0.000337832
23 *125:18 *134:218 1.14189e-05
24 *125:18 *136:16 0.00344229
25 *125:18 *192:10 0.000105399
26 *125:18 *192:140 0.000709899
27 *125:26 *127:20 0.000373113
28 *125:26 *147:24 0.00261423
29 *125:26 *188:42 0.000245324
30 *2225:A2 *125:6 0.000185434
31 *29:8 *125:14 0.00103914
32 *60:8 *125:12 0.00127272
33 *69:6 *125:14 0.00308738
34 *100:42 *125:26 0.00232482
35 *100:50 *125:18 8.36198e-05
36 *100:65 *125:18 0.0017827
37 *118:26 *125:12 2.11849e-05
38 *121:20 *343:DIODE 5.56356e-05
*RES
1 *2225:X *125:6 46.0136 
2 *125:6 *125:12 47.7521 
3 *125:12 *125:14 40.6414 
4 *125:14 *125:16 15 
5 *125:16 *125:18 45.7475 
6 *125:18 *125:24 16.3136 
7 *125:24 *125:26 37.6482 
8 *125:26 *2227:B 42.35 
9 *125:26 *343:DIODE 38.6214 
*END

*D_NET *126 0.0306285
*CONN
*I *347:DIODE I *D sky130_fd_sc_hd__diode_2
*I *2229:B I *D sky130_fd_sc_hd__xnor2_1
*I *344:DIODE I *D sky130_fd_sc_hd__diode_2
*I *2227:C I *D sky130_fd_sc_hd__and3_1
*I *2226:Y O *D sky130_fd_sc_hd__nand3_2
*CAP
1 *347:DIODE 0
2 *2229:B 0.000110885
3 *344:DIODE 0
4 *2227:C 0.000128983
5 *2226:Y 0.000208682
6 *126:40 0.000527569
7 *126:22 0.00145833
8 *126:20 0.00140867
9 *126:14 0.00263103
10 *126:10 0.00410746
11 *126:8 0.00218113
12 *2227:C *2295:A1 0.00021133
13 *2227:C *182:46 8.83597e-05
14 *2229:B *215:20 0.000115
15 *126:8 *2226:A 9.45591e-05
16 *126:8 *185:30 0.00052282
17 *126:8 *185:44 9.94628e-05
18 *126:8 *216:14 0.000607167
19 *126:10 *2362:CLK 0.000141869
20 *126:10 *170:34 0.000278753
21 *126:10 *175:206 5.15096e-05
22 *126:10 *175:219 0.0011954
23 *126:10 *189:14 0.00225849
24 *126:10 *211:10 2.54749e-05
25 *126:10 *211:14 0.000683687
26 *126:10 *211:60 7.20682e-05
27 *126:14 *2278:A1 4.96717e-05
28 *126:14 *2317:A 3.71369e-05
29 *126:14 *171:135 4.37586e-06
30 *126:14 *204:82 1.54424e-05
31 *126:20 *134:43 6.33614e-05
32 *126:20 *208:38 0.000133316
33 *126:22 *378:DIODE 5.67058e-05
34 *126:22 *379:DIODE 9.45591e-05
35 *126:22 *134:47 5.50106e-05
36 *126:22 *181:38 0.00245084
37 *126:22 *181:72 0.00250282
38 *126:22 *182:46 0.00241077
39 *126:22 *183:51 0.000710737
40 *126:22 *183:57 3.16784e-05
41 *126:22 *198:20 5.6241e-05
42 *126:40 *170:100 5.94125e-05
43 *126:40 *189:14 0.000259946
44 *126:40 *211:60 2.472e-05
45 *2226:C *126:8 1.03836e-05
46 *2354:RESET_B *126:10 1.4531e-05
47 *2356:RESET_B *126:40 0.000140958
48 *10:10 *126:8 0.000139352
49 *28:20 *126:10 0.000400289
50 *57:6 *2229:B 0.000221084
51 *67:26 *126:40 0.000148943
52 *109:22 *126:10 2.84201e-05
53 *109:22 *126:40 0.000242753
54 *109:28 *126:10 0.000290812
55 *119:133 *126:40 0.000765549
*RES
1 *2226:Y *126:8 47.1971 
2 *126:8 *126:10 51.5579 
3 *126:10 *126:14 46.1129 
4 *126:14 *126:20 31.9057 
5 *126:20 *126:22 55.8871 
6 *126:22 *2227:C 26.6871 
7 *126:22 *344:DIODE 23 
8 *126:8 *126:40 29.2307 
9 *126:40 *2229:B 26.0243 
10 *126:40 *347:DIODE 23 
*END

*D_NET *127 0.0355773
*CONN
*I *345:DIODE I *D sky130_fd_sc_hd__diode_2
*I *2228:A I *D sky130_fd_sc_hd__clkbuf_1
*I *2227:X O *D sky130_fd_sc_hd__and3_1
*CAP
1 *345:DIODE 5.94288e-05
2 *2228:A 0
3 *2227:X 0.000137348
4 *127:26 0.000384716
5 *127:20 0.0138077
6 *127:12 0.0136198
7 *345:DIODE *141:92 5.3304e-05
8 *345:DIODE *177:157 0.000137651
9 *345:DIODE *199:74 4.05745e-05
10 *127:12 *188:42 9.85586e-06
11 *127:20 *136:16 0.00068638
12 *127:20 *138:26 9.47583e-05
13 *127:20 *147:10 0.000158029
14 *127:20 *147:24 0.000325786
15 *127:20 *148:12 0.00021838
16 *127:20 *149:30 0.000193251
17 *127:20 *152:26 0
18 *127:20 *158:22 0
19 *127:20 *158:24 0.000149504
20 *127:20 *173:62 0.000805919
21 *127:20 *179:142 0.000308305
22 *127:20 *179:190 0.000221572
23 *127:20 *187:32 0.000115154
24 *127:20 *187:68 0.000428743
25 *127:20 *188:42 0.000208147
26 *127:20 *192:26 0.000115724
27 *127:20 *192:140 0.000128673
28 *127:26 *204:30 0.000837999
29 *2227:B *127:12 2.24608e-05
30 *26:10 *127:20 0.000122544
31 *31:24 *127:26 0.000121973
32 *32:12 *127:20 0.000172257
33 *100:42 *127:20 0.000203555
34 *100:65 *127:20 0.000127409
35 *106:68 *127:26 4.81862e-05
36 *106:88 *127:26 0.000801254
37 *125:18 *127:20 0.000337832
38 *125:26 *127:20 0.000373113
*RES
1 *2227:X *127:12 46.5059 
2 *127:12 *127:20 43.0125 
3 *127:20 *127:26 34.5896 
4 *127:26 *2228:A 23 
5 *127:26 *345:DIODE 24.5743 
*END

*D_NET *128 0.0118876
*CONN
*I *2233:A2 I *D sky130_fd_sc_hd__o21ba_1
*I *2230:X O *D sky130_fd_sc_hd__and4_1
*CAP
1 *2233:A2 7.81332e-05
2 *2230:X 0.000733005
3 *128:14 0.00152543
4 *128:12 0.0014473
5 *128:10 0.000733005
6 *2233:A2 *2233:A1 5.12055e-06
7 *2233:A2 *2233:B1_N 5.33855e-05
8 *2233:A2 *187:16 1.23695e-05
9 *128:10 *350:DIODE 5.3304e-05
10 *128:10 *447:DIODE 5.50049e-05
11 *128:10 *2230:C 0.00030373
12 *128:10 *170:113 3.88133e-05
13 *128:10 *170:121 2.93747e-05
14 *128:10 *199:14 5.3304e-05
15 *128:10 *199:29 0.000141215
16 *128:14 *374:DIODE 0.000131982
17 *128:14 *466:DIODE 0
18 *128:14 *129:41 0.0022331
19 *128:14 *151:39 0.000802596
20 *128:14 *151:45 0.00135267
21 *128:14 *151:61 0.00089476
22 *128:14 *200:12 0
23 *24:10 *128:14 0
24 *52:8 *128:10 0.000264564
25 *108:22 *2233:A2 0.000187067
26 *115:80 *128:14 0.000186813
27 *119:115 *128:10 0.000571538
*RES
1 *2230:X *128:10 38.5564 
2 *128:10 *128:12 15 
3 *128:12 *128:14 44.515 
4 *128:14 *2233:A2 40.5479 
*END

*D_NET *129 0.0220545
*CONN
*I *357:DIODE I *D sky130_fd_sc_hd__diode_2
*I *2238:C I *D sky130_fd_sc_hd__and4_1
*I *374:DIODE I *D sky130_fd_sc_hd__diode_2
*I *2232:B I *D sky130_fd_sc_hd__and2_2
*I *2231:X O *D sky130_fd_sc_hd__and4_1
*CAP
1 *357:DIODE 0
2 *2238:C 0.000139414
3 *374:DIODE 0.000103867
4 *2232:B 0
5 *2231:X 5.78626e-05
6 *129:41 0.0016435
7 *129:39 0.00268005
8 *129:22 0.00148551
9 *129:12 0.00260113
10 *129:10 0.00239545
11 *129:8 5.78626e-05
12 *374:DIODE *151:61 0.000132744
13 *2238:C *132:28 0.000167854
14 *2238:C *204:45 1.41129e-05
15 *2238:C *204:57 2.64616e-05
16 *129:8 *136:16 0.000112722
17 *129:8 *192:140 5.07209e-05
18 *129:12 *138:32 0.00216759
19 *129:12 *184:34 0.000867974
20 *129:12 *185:114 0.000274893
21 *129:12 *185:124 7.79323e-05
22 *129:12 *210:16 0.000338391
23 *129:12 *210:18 0.000429091
24 *129:12 *210:20 0.00117701
25 *129:12 *210:28 0.000267773
26 *129:22 *203:116 9.82508e-05
27 *129:39 *2270:D 0
28 *129:39 *150:29 7.86661e-05
29 *129:39 *151:39 0
30 *129:39 *154:10 3.17598e-05
31 *129:39 *183:150 0
32 *129:39 *199:59 8.50366e-05
33 *129:39 *201:91 0.000156176
34 *129:39 *204:18 8.74369e-07
35 *129:41 *151:39 1.43557e-05
36 *129:41 *151:61 7.50931e-05
37 *129:41 *152:16 1.68638e-05
38 *129:41 *154:10 0
39 *2182:C *129:22 5.87231e-05
40 *2232:A *129:22 1.41129e-05
41 *2232:A *129:39 0.000358467
42 *91:18 *129:39 0.000410412
43 *100:125 *129:22 0
44 *100:127 *129:12 5.44733e-05
45 *109:12 *129:22 9.79925e-05
46 *109:12 *129:39 0.000596342
47 *115:80 *2238:C 0.000271906
48 *128:14 *374:DIODE 0.000131982
49 *128:14 *129:41 0.0022331
*RES
1 *2231:X *129:8 39.5536 
2 *129:8 *129:10 15 
3 *129:10 *129:12 56.84 
4 *129:12 *129:22 34.5571 
5 *129:22 *2232:B 23 
6 *129:22 *129:39 42.2911 
7 *129:39 *129:41 30.9575 
8 *129:41 *374:DIODE 39.9057 
9 *129:41 *2238:C 41.9564 
10 *129:12 *357:DIODE 23 
*END

*D_NET *130 0.0329863
*CONN
*I *2233:B1_N I *D sky130_fd_sc_hd__o21ba_1
*I *359:DIODE I *D sky130_fd_sc_hd__diode_2
*I *361:DIODE I *D sky130_fd_sc_hd__diode_2
*I *2234:B I *D sky130_fd_sc_hd__nand2_2
*I *363:DIODE I *D sky130_fd_sc_hd__diode_2
*I *2235:A2 I *D sky130_fd_sc_hd__o211a_1
*I *2232:X O *D sky130_fd_sc_hd__and2_2
*CAP
1 *2233:B1_N 0.000379921
2 *359:DIODE 0
3 *361:DIODE 0
4 *2234:B 0
5 *363:DIODE 0
6 *2235:A2 0.000266594
7 *2232:X 0
8 *130:74 0.000906544
9 *130:60 0.000155347
10 *130:52 0.00188487
11 *130:50 0.00197586
12 *130:46 0.000995118
13 *130:38 0.0020512
14 *130:36 0.00182903
15 *130:20 0.00174626
16 *130:18 0.00180524
17 *130:4 0.000325578
18 *2233:B1_N *2233:A1 4.98122e-06
19 *2233:B1_N *187:16 2.2488e-06
20 *2233:B1_N *187:20 0.000205025
21 *2235:A2 *2235:B1 5.33954e-05
22 *2235:A2 *188:102 0.000179271
23 *2235:A2 *211:111 1.47709e-05
24 *130:20 *212:96 0.00113802
25 *130:38 *2293:A 6.10809e-05
26 *130:38 *134:105 1.42071e-05
27 *130:38 *156:14 0.00110483
28 *130:38 *166:66 0.000528283
29 *130:38 *166:77 0.00021039
30 *130:38 *166:90 0.00244858
31 *130:38 *203:116 0.000250167
32 *130:38 *204:76 0.000187612
33 *130:38 *205:68 0.000390699
34 *130:38 *215:16 0.000801278
35 *130:38 *221:8 0.000270127
36 *130:46 *180:58 0.000178512
37 *130:46 *205:58 0.000184634
38 *130:46 *221:12 9.66585e-05
39 *130:50 *180:58 0.000657137
40 *130:50 *205:58 0.000654927
41 *130:52 *134:95 1.89178e-05
42 *130:52 *194:18 9.5877e-05
43 *130:52 *202:44 0.00190552
44 *130:52 *204:104 0.00114368
45 *130:52 *213:190 0.00046952
46 *130:60 *186:22 0
47 *130:60 *188:22 1.01436e-05
48 *130:60 *188:24 8.28736e-05
49 *130:60 *188:30 0.000108681
50 *130:60 *201:54 0
51 *130:60 *202:44 9.65021e-05
52 *130:74 *187:20 0.000641773
53 *2182:A *130:20 0.000220592
54 *2182:D *130:20 0.000516637
55 *2233:A2 *2233:B1_N 5.33855e-05
56 *19:22 *130:46 0.000182213
57 *38:10 *130:60 0.000110922
58 *91:18 *130:18 0.000226899
59 *94:8 *130:20 0.000470342
60 *96:12 *130:52 0.0012451
61 *96:12 *130:60 3.0538e-05
62 *100:125 *130:18 5.99067e-05
63 *108:22 *2233:B1_N 9.03964e-06
64 *116:34 *130:60 8.62449e-06
65 *122:49 *2235:A2 0.000399662
66 *122:49 *130:20 0.000920587
*RES
1 *2232:X *130:4 23 
2 *130:4 *130:18 35.2407 
3 *130:18 *130:20 35.8771 
4 *130:20 *2235:A2 29.3593 
5 *130:20 *363:DIODE 23 
6 *130:4 *130:36 15 
7 *130:36 *130:38 52.2621 
8 *130:38 *130:46 34.6607 
9 *130:46 *130:50 23.9486 
10 *130:50 *130:52 42.0707 
11 *130:52 *130:60 33.7079 
12 *130:60 *2234:B 23 
13 *130:52 *361:DIODE 23 
14 *130:46 *130:74 22.2914 
15 *130:74 *359:DIODE 23 
16 *130:74 *2233:B1_N 28.7586 
*END

*D_NET *131 0.020674
*CONN
*I *2235:B1 I *D sky130_fd_sc_hd__o211a_1
*I *364:DIODE I *D sky130_fd_sc_hd__diode_2
*I *367:DIODE I *D sky130_fd_sc_hd__diode_2
*I *2236:B I *D sky130_fd_sc_hd__xnor2_2
*I *2234:Y O *D sky130_fd_sc_hd__nand2_2
*CAP
1 *2235:B1 0.00017687
2 *364:DIODE 0
3 *367:DIODE 0
4 *2236:B 0.000151962
5 *2234:Y 0
6 *131:44 0.00244175
7 *131:42 0.00232725
8 *131:18 0.00157303
9 *131:16 0.00142107
10 *131:14 0.000943412
11 *131:4 0.00100578
12 *2235:B1 *181:10 9.8026e-05
13 *2235:B1 *211:111 0.000261458
14 *2236:B *2236:A 2.02872e-05
15 *2236:B *193:10 4.23817e-05
16 *131:14 *578:DIODE 2.40336e-05
17 *131:14 *2359:CLK 9.67916e-05
18 *131:14 *153:45 4.69711e-05
19 *131:14 *174:92 5.58473e-05
20 *131:14 *201:48 0.000128571
21 *131:18 *134:16 0.000243745
22 *131:18 *168:12 0.00056746
23 *131:18 *169:34 8.62876e-05
24 *131:18 *169:40 0.000320408
25 *131:18 *187:32 0
26 *131:18 *193:10 0.000458383
27 *131:18 *196:26 0.000141038
28 *131:42 *2234:A 5.3304e-05
29 *131:42 *201:48 9.5877e-05
30 *131:44 *169:22 4.36242e-05
31 *131:44 *172:64 2.81216e-05
32 *131:44 *172:88 0.000158685
33 *131:44 *181:10 0.00290025
34 *131:44 *181:12 0.000933824
35 *131:44 *181:20 0.000114084
36 *131:44 *188:22 0.000196071
37 *131:44 *188:24 3.33144e-05
38 *131:44 *195:30 9.73448e-05
39 *131:44 *213:92 0.000919705
40 *2235:A2 *2235:B1 5.33954e-05
41 *2359:D *131:14 0.000166307
42 *2359:D *131:42 1.41129e-05
43 *2361:RESET_B *131:44 1.41891e-05
44 *26:8 *2236:B 0.000147656
45 *26:10 *2236:B 0
46 *26:10 *131:18 0
47 *28:28 *2235:B1 0.000109407
48 *28:28 *131:44 0.000762094
49 *29:10 *131:44 0
50 *88:12 *131:18 0.000215812
51 *100:14 *131:18 0.000299204
52 *105:16 *131:14 8.21123e-05
53 *120:16 *131:44 0.000194082
54 *122:31 *2236:B 0.000228903
55 *122:49 *2235:B1 0.000179725
*RES
1 *2234:Y *131:4 23 
2 *131:4 *131:14 42.4493 
3 *131:14 *131:16 15 
4 *131:16 *131:18 36.7679 
5 *131:18 *2236:B 42.4329 
6 *131:18 *367:DIODE 38 
7 *131:4 *131:42 16.595 
8 *131:42 *131:44 61.4179 
9 *131:44 *364:DIODE 38 
10 *131:44 *2235:B1 43.0543 
*END

*D_NET *132 0.0173532
*CONN
*I *2238:D I *D sky130_fd_sc_hd__and4_1
*I *2237:X O *D sky130_fd_sc_hd__and4_1
*CAP
1 *2238:D 0
2 *2237:X 1.02029e-05
3 *132:28 0.00142517
4 *132:18 0.00518552
5 *132:10 0.00377055
6 *132:10 *195:72 2.33476e-05
7 *132:10 *214:36 1.05658e-05
8 *132:18 *2273:A1 0.000113398
9 *132:18 *134:103 2.62856e-05
10 *132:18 *153:22 0
11 *132:18 *166:24 0.000834994
12 *132:18 *178:48 0.00123628
13 *132:18 *202:62 0.00092667
14 *132:18 *218:30 8.86126e-06
15 *132:28 *505:DIODE 5.3304e-05
16 *132:28 *2280:C 0.000396623
17 *132:28 *134:103 0.000741622
18 *132:28 *156:38 0.000112538
19 *132:28 *156:42 0.000481032
20 *132:28 *156:57 0.000702522
21 *132:28 *160:6 0.000143408
22 *132:28 *178:48 4.98146e-05
23 *132:28 *181:150 0.000180849
24 *132:28 *182:113 0.000266939
25 *132:28 *182:128 1.02029e-05
26 *132:28 *192:84 0.000135037
27 *132:28 *203:154 5.3304e-05
28 *132:28 *204:57 2.19764e-05
29 *132:28 *205:58 2.77716e-05
30 *2238:C *132:28 0.000167854
31 *2374:D *132:18 1.82504e-05
32 *7:17 *132:18 0
33 *17:28 *132:18 4.70975e-05
34 *71:18 *132:18 0
35 *101:24 *132:18 1.88821e-05
36 *123:20 *132:18 0.000152317
*RES
1 *2237:X *132:10 46.3211 
2 *132:10 *132:18 32.5946 
3 *132:18 *132:28 48.5882 
4 *132:28 *2238:D 23 
*END

*D_NET *133 0.0177858
*CONN
*I *2239:A I *D sky130_fd_sc_hd__clkbuf_4
*I *2238:X O *D sky130_fd_sc_hd__and4_1
*CAP
1 *2239:A 2.37985e-05
2 *2238:X 1.52076e-05
3 *133:16 0.00655152
4 *133:10 0.00654293
5 *133:10 *466:DIODE 9.85586e-06
6 *133:16 *141:22 0.000206992
7 *133:16 *158:22 0.000104142
8 *133:16 *168:12 0.000376606
9 *133:16 *169:32 1.14452e-05
10 *133:16 *169:34 0.00060425
11 *133:16 *171:82 3.91207e-05
12 *133:16 *173:12 8.85541e-06
13 *133:16 *192:57 0.000114639
14 *133:16 *193:10 0.000419266
15 *133:16 *193:22 0.00264722
16 *133:16 *214:53 4.76467e-05
17 *68:8 *2239:A 5.67058e-05
18 *115:80 *133:10 5.58152e-06
*RES
1 *2238:X *133:10 46.3211 
2 *133:10 *133:16 37.4643 
3 *133:16 *2239:A 38.6214 
*END

*D_NET *134 0.0612719
*CONN
*I *398:DIODE I *D sky130_fd_sc_hd__diode_2
*I *2250:A I *D sky130_fd_sc_hd__nand2_1
*I *2242:C I *D sky130_fd_sc_hd__and3_2
*I *2272:A I *D sky130_fd_sc_hd__and3_2
*I *451:DIODE I *D sky130_fd_sc_hd__diode_2
*I *2254:A1 I *D sky130_fd_sc_hd__a21oi_1
*I *406:DIODE I *D sky130_fd_sc_hd__diode_2
*I *2264:A I *D sky130_fd_sc_hd__and2_2
*I *430:DIODE I *D sky130_fd_sc_hd__diode_2
*I *404:DIODE I *D sky130_fd_sc_hd__diode_2
*I *2253:B I *D sky130_fd_sc_hd__and3_2
*I *389:DIODE I *D sky130_fd_sc_hd__diode_2
*I *2245:D I *D sky130_fd_sc_hd__nand4_2
*I *378:DIODE I *D sky130_fd_sc_hd__diode_2
*I *2241:A2 I *D sky130_fd_sc_hd__a21oi_1
*I *382:DIODE I *D sky130_fd_sc_hd__diode_2
*I *2240:B I *D sky130_fd_sc_hd__xor2_1
*I *376:DIODE I *D sky130_fd_sc_hd__diode_2
*I *2239:X O *D sky130_fd_sc_hd__clkbuf_4
*CAP
1 *398:DIODE 0
2 *2250:A 0.000133376
3 *2242:C 0.000207504
4 *2272:A 0.00011579
5 *451:DIODE 0
6 *2254:A1 0
7 *406:DIODE 0.000110266
8 *2264:A 8.97067e-05
9 *430:DIODE 0
10 *404:DIODE 0
11 *2253:B 0.000186287
12 *389:DIODE 7.01007e-05
13 *2245:D 0
14 *378:DIODE 4.68682e-05
15 *2241:A2 0
16 *382:DIODE 0
17 *2240:B 8.8621e-05
18 *376:DIODE 0
19 *2239:X 0
20 *134:224 0.000552888
21 *134:218 0.000715757
22 *134:175 0.00108096
23 *134:169 0.00209725
24 *134:161 0.00115435
25 *134:159 0.000251503
26 *134:141 0.00050265
27 *134:126 0.000484597
28 *134:113 0.000736159
29 *134:109 0.00228178
30 *134:105 0.00261635
31 *134:103 0.00127422
32 *134:95 0.00107373
33 *134:75 0.000734509
34 *134:65 0.00141727
35 *134:47 5.77313e-05
36 *134:43 0.00098691
37 *134:39 0.00544207
38 *134:32 0.00444758
39 *134:16 0.000783661
40 *134:10 0.00102268
41 *134:8 0.000539332
42 *134:6 0.000530462
43 *378:DIODE *379:DIODE 0.000127821
44 *378:DIODE *181:72 1.56665e-05
45 *378:DIODE *181:78 0.000185434
46 *378:DIODE *191:98 0.000143655
47 *406:DIODE *407:DIODE 2.1819e-05
48 *406:DIODE *2254:A2 2.32101e-05
49 *406:DIODE *2254:B1 5.76916e-05
50 *2240:B *143:12 6.53382e-05
51 *2250:A *2250:B 0.000147236
52 *2250:A *141:40 5.75005e-05
53 *2250:A *142:8 2.95423e-05
54 *2253:B *195:140 1.85916e-05
55 *2264:A *150:35 0.000147656
56 *2264:A *151:10 6.17437e-06
57 *2272:A *155:14 9.58714e-05
58 *2272:A *162:20 0.000219383
59 *134:8 *153:45 8.4047e-05
60 *134:8 *169:34 0.00014377
61 *134:8 *169:40 4.82202e-05
62 *134:8 *187:32 0.000214381
63 *134:10 *187:32 0.000163744
64 *134:16 *143:12 0.000193739
65 *134:16 *187:32 0.000583568
66 *134:16 *196:26 6.90927e-05
67 *134:39 *174:6 8.27026e-05
68 *134:39 *174:10 0.000139774
69 *134:39 *174:181 2.43944e-05
70 *134:39 *209:142 0.000115855
71 *134:39 *211:48 2.64616e-05
72 *134:39 *212:20 0.000522371
73 *134:39 *212:48 0.000506279
74 *134:43 *190:88 0.000272964
75 *134:43 *208:38 0.00165734
76 *134:43 *213:12 0.000812575
77 *134:43 *213:182 0.000602625
78 *134:47 *379:DIODE 5.67058e-05
79 *134:65 *166:66 8.89055e-05
80 *134:65 *169:100 2.92911e-06
81 *134:65 *174:181 1.21972e-05
82 *134:65 *190:44 2.04774e-05
83 *134:65 *211:48 6.17437e-06
84 *134:75 *2245:C 0.000568794
85 *134:75 *169:100 0.000822864
86 *134:95 *166:66 0.000329396
87 *134:95 *169:94 4.59507e-05
88 *134:95 *190:44 1.62615e-05
89 *134:95 *191:90 0.000205294
90 *134:95 *194:18 5.79715e-05
91 *134:95 *204:104 4.67488e-05
92 *134:103 *182:18 0.000135037
93 *134:103 *202:62 0.000240341
94 *134:103 *205:58 0.00103563
95 *134:105 *180:58 0.000317026
96 *134:105 *180:67 0.000178773
97 *134:105 *180:82 0.000225948
98 *134:105 *205:58 0.000254812
99 *134:105 *215:16 0.000260899
100 *134:105 *221:8 0.000652568
101 *134:109 *148:14 0.00157825
102 *134:109 *178:74 0.00030373
103 *134:113 *184:161 0.00168189
104 *134:126 *184:155 0.000127272
105 *134:126 *184:161 9.26098e-05
106 *134:141 *150:35 9.69397e-05
107 *134:141 *151:16 0.000135037
108 *134:159 *205:58 2.81216e-05
109 *134:159 *205:68 0.000151974
110 *134:159 *215:16 9.80568e-05
111 *134:161 *162:20 5.50049e-05
112 *134:169 *162:20 0.000300209
113 *134:169 *184:16 1.00156e-05
114 *134:169 *208:12 0.00169855
115 *134:175 *2254:A2 3.22879e-05
116 *134:175 *184:16 0.000179215
117 *134:175 *184:114 0.000121258
118 *134:175 *203:116 0
119 *134:175 *208:12 0.00015335
120 *134:175 *210:58 4.45416e-05
121 *134:218 *147:18 6.2088e-05
122 *134:218 *169:34 2.96051e-05
123 *134:218 *171:16 1.40958e-05
124 *134:218 *179:168 0.000136743
125 *134:218 *187:32 2.24973e-05
126 *134:218 *192:10 0.000122397
127 *134:224 *141:40 6.99175e-05
128 *134:224 *147:18 0.000104967
129 *134:224 *147:22 3.35277e-05
130 *134:224 *148:8 0.000141095
131 *299:DIODE *2242:C 5.3304e-05
132 *2259:A *134:224 1.39161e-05
133 *20:10 *134:65 3.55458e-05
134 *26:10 *134:218 0.00045305
135 *33:26 *389:DIODE 0.000188927
136 *33:26 *134:75 2.19845e-05
137 *44:10 *134:169 0.00152085
138 *47:14 *134:109 0.000168328
139 *48:8 *2242:C 0.000221084
140 *58:18 *134:113 0.00168413
141 *58:18 *134:126 0.000209729
142 *62:8 *134:169 4.38289e-05
143 *67:26 *134:113 0.000204508
144 *68:8 *134:218 0.000180218
145 *88:12 *134:8 0.000138177
146 *88:12 *134:10 0.000329855
147 *88:12 *134:16 0.000218481
148 *95:42 *134:175 0.000819147
149 *100:50 *134:218 3.6608e-05
150 *100:65 *134:218 1.07299e-05
151 *100:117 *134:169 4.96717e-05
152 *100:125 *134:175 0.000137696
153 *111:10 *134:141 0.000222113
154 *113:8 *134:141 0.000108662
155 *113:32 *2242:C 0.00030373
156 *125:18 *134:218 1.14189e-05
157 *126:20 *134:43 6.33614e-05
158 *126:22 *378:DIODE 5.67058e-05
159 *126:22 *134:47 5.50106e-05
160 *130:38 *134:105 1.42071e-05
161 *130:52 *134:95 1.89178e-05
162 *131:18 *134:16 0.000243745
163 *132:18 *134:103 2.62856e-05
164 *132:28 *134:103 0.000741622
*RES
1 *2239:X *134:6 38 
2 *134:6 *134:8 7.18786 
3 *134:8 *134:10 4.37071 
4 *134:10 *134:16 34.9479 
5 *134:16 *376:DIODE 23 
6 *134:16 *2240:B 24.5743 
7 *134:10 *134:32 17.5271 
8 *134:32 *382:DIODE 23 
9 *134:32 *134:39 49.6936 
10 *134:39 *134:43 42.6121 
11 *134:43 *134:47 15.6214 
12 *134:47 *2241:A2 23 
13 *134:47 *378:DIODE 26.0036 
14 *134:39 *134:65 18.7286 
15 *134:65 *134:75 29.5 
16 *134:75 *2245:D 23 
17 *134:75 *389:DIODE 25.0507 
18 *134:65 *134:95 38.6793 
19 *134:95 *134:103 45.805 
20 *134:103 *134:105 17.4 
21 *134:105 *134:109 45.16 
22 *134:109 *134:113 37.33 
23 *134:113 *2253:B 40.0507 
24 *134:113 *134:126 17.9621 
25 *134:126 *404:DIODE 23 
26 *134:126 *134:141 37.54 
27 *134:141 *430:DIODE 23 
28 *134:141 *2264:A 25.4236 
29 *134:105 *134:159 17.9621 
30 *134:159 *134:161 0.621429 
31 *134:161 *134:169 44.9425 
32 *134:169 *134:175 33.4461 
33 *134:175 *406:DIODE 24.5743 
34 *134:175 *2254:A1 23 
35 *134:161 *451:DIODE 23 
36 *134:159 *2272:A 25.5271 
37 *134:8 *2242:C 42.4329 
38 *134:6 *134:218 39.0314 
39 *134:218 *134:224 22.3121 
40 *134:224 *2250:A 26.48 
41 *134:224 *398:DIODE 23 
*END

*D_NET *135 0.00562456
*CONN
*I *2243:A I *D sky130_fd_sc_hd__nor2_2
*I *2241:Y O *D sky130_fd_sc_hd__a21oi_1
*CAP
1 *2243:A 0
2 *2241:Y 0.000284971
3 *135:16 0.000895523
4 *135:10 0.00118049
5 *135:10 *156:77 0.000445981
6 *135:10 *181:78 0.000392374
7 *135:10 *199:136 0.000392374
8 *135:10 *205:14 0.000445981
9 *135:16 *483:DIODE 0.000321493
10 *135:16 *2288:B1 0.000186041
11 *135:16 *164:10 2.95423e-05
12 *135:16 *179:82 0.000336578
13 *135:16 *179:100 0.000536122
14 *135:16 *180:20 0.000100318
15 *135:16 *203:12 7.67664e-05
*RES
1 *2241:Y *135:10 48.5643 
2 *135:10 *135:16 37.0814 
3 *135:16 *2243:A 23 
*END

*D_NET *136 0.036459
*CONN
*I *383:DIODE I *D sky130_fd_sc_hd__diode_2
*I *2243:B I *D sky130_fd_sc_hd__nor2_2
*I *385:DIODE I *D sky130_fd_sc_hd__diode_2
*I *2244:B I *D sky130_fd_sc_hd__or2_1
*I *2242:X O *D sky130_fd_sc_hd__and3_2
*CAP
1 *383:DIODE 9.77642e-05
2 *2243:B 0
3 *385:DIODE 0.000198895
4 *2244:B 0
5 *2242:X 4.45264e-05
6 *136:50 0.000504318
7 *136:46 0.0089744
8 *136:16 0.00210209
9 *136:14 0.00242261
10 *136:10 0.00913178
11 *383:DIODE *203:12 0.00012959
12 *385:DIODE *384:DIODE 5.51222e-05
13 *385:DIODE *192:140 4.21594e-06
14 *385:DIODE *213:130 0.000140958
15 *136:10 *193:10 0.00012758
16 *136:14 *158:22 0
17 *136:16 *146:30 9.21995e-05
18 *136:16 *148:12 1.63905e-05
19 *136:16 *179:168 0.000843324
20 *136:16 *187:68 0.00307549
21 *136:16 *187:76 0.00101604
22 *136:16 *187:86 0.000270464
23 *136:16 *192:10 4.81997e-05
24 *136:16 *192:140 0.000104669
25 *136:46 *153:22 0.000173285
26 *136:46 *158:22 0
27 *136:46 *163:60 5.10396e-05
28 *136:46 *218:30 0
29 *136:50 *170:34 0
30 *28:12 *136:50 0.000156261
31 *30:16 *136:46 0
32 *36:26 *136:46 0
33 *42:20 *136:46 3.39797e-05
34 *54:12 *136:50 0
35 *66:12 *136:46 5.31583e-05
36 *75:32 *136:46 0.000142269
37 *80:26 *136:50 0.000248403
38 *97:24 *136:46 9.28029e-05
39 *100:42 *136:16 0.00110778
40 *101:24 *136:46 0.000133698
41 *106:12 *136:10 0.00012758
42 *106:134 *385:DIODE 0.000140259
43 *109:28 *136:50 0
44 *116:78 *385:DIODE 1.06693e-05
45 *116:78 *136:16 0.000345766
46 *125:18 *136:16 0.00344229
47 *127:20 *136:16 0.00068638
48 *129:8 *136:16 0.000112722
*RES
1 *2242:X *136:10 47.7296 
2 *136:10 *136:14 9.344 
3 *136:14 *136:16 78.1446 
4 *136:16 *2244:B 38 
5 *136:16 *385:DIODE 42.1843 
6 *136:10 *136:46 42.648 
7 *136:46 *136:50 24.1246 
8 *136:50 *2243:B 23 
9 *136:50 *383:DIODE 25.5271 
*END

*D_NET *137 0.00547856
*CONN
*I *2246:B I *D sky130_fd_sc_hd__and3_1
*I *2244:X O *D sky130_fd_sc_hd__or2_1
*CAP
1 *2246:B 0
2 *2244:X 0.00159515
3 *137:6 0.00159515
4 *49:8 *137:6 0.00221844
5 *118:24 *137:6 6.9805e-05
*RES
1 *2244:X *137:6 48.8721 
2 *137:6 *2246:B 23 
*END

*D_NET *138 0.0289839
*CONN
*I *391:DIODE I *D sky130_fd_sc_hd__diode_2
*I *2246:C I *D sky130_fd_sc_hd__and3_1
*I *393:DIODE I *D sky130_fd_sc_hd__diode_2
*I *2248:B_N I *D sky130_fd_sc_hd__or2b_1
*I *2245:Y O *D sky130_fd_sc_hd__nand4_2
*CAP
1 *391:DIODE 0
2 *2246:C 0.000239898
3 *393:DIODE 0
4 *2248:B_N 0
5 *2245:Y 0.000440361
6 *138:54 0.000515758
7 *138:38 6.6519e-05
8 *138:32 0.000718518
9 *138:28 0.00191824
10 *138:26 0.00675525
11 *138:12 0.00620523
12 *138:12 *2245:C 1.21972e-05
13 *138:12 *169:158 5.08422e-06
14 *138:12 *190:131 0.000186448
15 *138:12 *191:129 6.51005e-05
16 *138:12 *196:14 0
17 *138:12 *196:70 0
18 *138:26 *149:30 0.000541175
19 *138:26 *152:26 0.000103236
20 *138:26 *171:82 0.00153853
21 *138:26 *202:18 0.000100526
22 *138:26 *212:20 0.000127194
23 *138:28 *139:12 0
24 *138:28 *145:10 0.00184955
25 *138:28 *201:67 0.000315476
26 *138:32 *303:DIODE 0.000185778
27 *138:32 *185:114 0.000302325
28 *138:32 *188:110 1.73995e-05
29 *138:32 *209:75 8.13613e-05
30 *138:32 *211:96 0.000620495
31 *138:38 *191:12 0.000220665
32 *138:54 *139:12 0
33 *138:54 *145:10 0.000329347
34 *286:DIODE *138:32 9.86777e-06
35 *2341:RESET_B *138:26 0
36 *7:17 *138:26 0.000521252
37 *21:24 *138:26 0.000249132
38 *31:14 *138:38 0.000222802
39 *33:22 *138:12 1.38134e-05
40 *33:26 *138:12 9.77405e-05
41 *53:12 *138:12 0.000493535
42 *60:12 *138:26 0.00023801
43 *75:32 *138:26 0.000479103
44 *75:38 *138:12 1.77642e-05
45 *97:24 *138:26 0.000218491
46 *106:108 *138:32 7.64944e-05
47 *106:110 *138:32 2.95423e-05
48 *117:26 *138:26 0
49 *118:24 *2246:C 4.75206e-05
50 *118:24 *138:54 1.59094e-05
51 *122:57 *138:32 0.000360955
52 *122:73 *2246:C 0.000167926
53 *127:20 *138:26 9.47583e-05
54 *129:12 *138:32 0.00216759
*RES
1 *2245:Y *138:12 47.4354 
2 *138:12 *138:26 46.5675 
3 *138:26 *138:28 25.3232 
4 *138:28 *138:32 38.9664 
5 *138:32 *138:38 32.9621 
6 *138:38 *2248:B_N 23 
7 *138:32 *393:DIODE 23 
8 *138:28 *138:54 20.3443 
9 *138:54 *2246:C 26.3454 
10 *138:54 *391:DIODE 23 
*END

*D_NET *139 0.00439376
*CONN
*I *2247:A I *D sky130_fd_sc_hd__buf_1
*I *2246:X O *D sky130_fd_sc_hd__and3_1
*CAP
1 *2247:A 0
2 *2246:X 0.000150503
3 *139:12 0.000865113
4 *139:8 0.00101562
5 *139:8 *145:6 0.000227208
6 *139:12 *145:10 0
7 *139:12 *201:67 0.000218404
8 *82:12 *139:12 0.00147494
9 *118:24 *139:8 0.000441978
10 *138:28 *139:12 0
11 *138:54 *139:12 0
*RES
1 *2246:X *139:8 42.9093 
2 *139:8 *139:12 35.2171 
3 *139:12 *2247:A 23 
*END

*D_NET *140 0.0137381
*CONN
*I *401:DIODE I *D sky130_fd_sc_hd__diode_2
*I *2251:B I *D sky130_fd_sc_hd__and3_1
*I *2248:X O *D sky130_fd_sc_hd__or2b_1
*CAP
1 *401:DIODE 0
2 *2251:B 0.000222504
3 *2248:X 0.000744066
4 *140:16 0.000222504
5 *140:14 0.00375297
6 *140:12 0.00449703
7 *2251:B *142:14 2.45549e-06
8 *2251:B *143:8 6.08673e-06
9 *140:12 *392:DIODE 5.5792e-05
10 *140:14 *142:14 0
11 *140:14 *147:24 0
12 *140:14 *152:44 0.00117704
13 *140:14 *153:61 0.00124655
14 *140:14 *201:14 0
15 *140:14 *201:22 0.00082367
16 *17:8 *140:14 0.000579856
17 *67:16 *140:14 0.000339069
18 *100:33 *2251:B 6.84697e-05
19 *114:10 *140:14 0
20 *116:78 *140:14 0
*RES
1 *2248:X *140:12 48.7921 
2 *140:12 *140:14 85.7157 
3 *140:14 *140:16 15 
4 *140:16 *2251:B 26.0036 
5 *140:16 *401:DIODE 23 
*END

*D_NET *141 0.0336549
*CONN
*I *2254:A2 I *D sky130_fd_sc_hd__a21oi_1
*I *407:DIODE I *D sky130_fd_sc_hd__diode_2
*I *2253:C I *D sky130_fd_sc_hd__and3_2
*I *405:DIODE I *D sky130_fd_sc_hd__diode_2
*I *428:DIODE I *D sky130_fd_sc_hd__diode_2
*I *2263:B I *D sky130_fd_sc_hd__and3_1
*I *399:DIODE I *D sky130_fd_sc_hd__diode_2
*I *2250:B I *D sky130_fd_sc_hd__nand2_1
*I *2249:X O *D sky130_fd_sc_hd__and4_2
*CAP
1 *2254:A2 2.61468e-05
2 *407:DIODE 5.93605e-05
3 *2253:C 0
4 *405:DIODE 0
5 *428:DIODE 0
6 *2263:B 4.92611e-05
7 *399:DIODE 0
8 *2250:B 0.000158474
9 *2249:X 0.000146435
10 *141:114 0.00166758
11 *141:105 0.000309749
12 *141:92 0.000864414
13 *141:90 0.00107523
14 *141:77 0.000659163
15 *141:68 0.00142625
16 *141:58 0.00389574
17 *141:40 0.000419186
18 *141:36 0.000977097
19 *141:28 0.00158962
20 *141:22 0.00256735
21 *141:8 0.00291582
22 *407:DIODE *2254:B1 0.000235687
23 *407:DIODE *210:58 0.000152787
24 *2254:A2 *210:58 5.41385e-05
25 *2263:B *181:194 2.93431e-05
26 *141:8 *192:57 0
27 *141:8 *193:37 1.05026e-05
28 *141:8 *206:52 0
29 *141:22 *191:50 0.000137368
30 *141:22 *192:57 3.13969e-05
31 *141:22 *193:22 0.000136738
32 *141:22 *198:68 0.000197269
33 *141:22 *206:40 0.000194647
34 *141:22 *215:8 0.00013223
35 *141:28 *612:DIODE 0.000210516
36 *141:28 *213:58 0.000630105
37 *141:28 *213:72 5.3304e-05
38 *141:28 *213:79 4.08664e-05
39 *141:28 *213:92 0.000462643
40 *141:28 *214:38 0.000632271
41 *141:28 *214:53 1.05441e-05
42 *141:28 *215:8 8.48502e-06
43 *141:28 *218:76 9.41704e-05
44 *141:36 *187:66 0.000384057
45 *141:36 *191:40 0.00026528
46 *141:58 *2189:A 0.000110184
47 *141:58 *178:85 0.000131538
48 *141:58 *199:88 2.31693e-05
49 *141:58 *206:52 0
50 *141:58 *206:84 0
51 *141:58 *207:29 0
52 *141:68 *152:16 2.26497e-05
53 *141:68 *152:26 0.00186431
54 *141:68 *154:10 4.75766e-05
55 *141:68 *158:22 0
56 *141:68 *163:50 2.24182e-05
57 *141:68 *173:79 1.40476e-05
58 *141:77 *152:16 0.000142173
59 *141:77 *181:194 1.56446e-05
60 *141:90 *152:16 0.00046194
61 *141:90 *200:78 0.000318411
62 *141:92 *144:16 0.000118072
63 *141:92 *177:157 9.44958e-05
64 *141:92 *177:166 0.000158344
65 *141:92 *199:74 0.000475976
66 *141:105 *144:16 5.95092e-05
67 *141:114 *163:50 0
68 *141:114 *173:79 2.39911e-05
69 *141:114 *184:114 0
70 *141:114 *206:84 0
71 *141:114 *206:103 3.86225e-05
72 *141:114 *207:14 0.000660781
73 *141:114 *207:29 0
74 *238:DIODE *141:114 5.58152e-06
75 *345:DIODE *141:92 5.3304e-05
76 *406:DIODE *407:DIODE 2.1819e-05
77 *406:DIODE *2254:A2 2.32101e-05
78 *2182:A *141:114 8.08692e-06
79 *2250:A *2250:B 0.000147236
80 *2250:A *141:40 5.75005e-05
81 *17:8 *141:36 0.000113398
82 *36:26 *141:68 1.29843e-05
83 *39:32 *141:58 7.78478e-05
84 *59:18 *141:114 0
85 *62:8 *141:114 0
86 *89:8 *141:8 0.000196239
87 *89:8 *141:58 0.000586303
88 *95:42 *141:114 0
89 *106:88 *141:90 0.000320651
90 *111:10 *141:105 0.000149433
91 *113:8 *141:105 0.000302339
92 *114:6 *141:36 0.00132058
93 *115:54 *141:22 0.000124492
94 *115:54 *141:28 0.00187362
95 *123:8 *141:28 0.000235987
96 *133:16 *141:22 0.000206992
97 *134:175 *2254:A2 3.22879e-05
98 *134:224 *141:40 6.99175e-05
*RES
1 *2249:X *141:8 40.7861 
2 *141:8 *141:22 41.3481 
3 *141:22 *141:28 44.7043 
4 *141:28 *141:36 46.4679 
5 *141:36 *141:40 18.48 
6 *141:40 *2250:B 26.8736 
7 *141:40 *399:DIODE 23 
8 *141:8 *141:58 20.5693 
9 *141:58 *141:68 35.3356 
10 *141:68 *2263:B 23.6214 
11 *141:68 *141:77 2.05071 
12 *141:77 *428:DIODE 23 
13 *141:77 *141:90 39.7564 
14 *141:90 *141:92 11.5793 
15 *141:92 *405:DIODE 23 
16 *141:92 *141:105 37.0221 
17 *141:105 *2253:C 23 
18 *141:58 *141:114 42.7882 
19 *141:114 *407:DIODE 26.0036 
20 *141:114 *2254:A2 24.0979 
*END

*D_NET *142 0.00454537
*CONN
*I *2251:C I *D sky130_fd_sc_hd__and3_1
*I *2250:Y O *D sky130_fd_sc_hd__nand2_1
*CAP
1 *2251:C 0
2 *2250:Y 4.61669e-05
3 *142:14 0.00142317
4 *142:8 0.00146933
5 *142:14 *143:8 2.07921e-05
6 *142:14 *167:48 0.000440838
7 *142:14 *201:14 0.000914367
8 *142:14 *217:8 0.000198712
9 *2250:A *142:8 2.95423e-05
10 *2251:B *142:14 2.45549e-06
11 *140:14 *142:14 0
*RES
1 *2250:Y *142:8 38.6214 
2 *142:8 *142:14 48.8264 
3 *142:14 *2251:C 23 
*END

*D_NET *143 0.0197353
*CONN
*I *402:DIODE I *D sky130_fd_sc_hd__diode_2
*I *2252:A I *D sky130_fd_sc_hd__buf_1
*I *2251:X O *D sky130_fd_sc_hd__and3_1
*CAP
1 *402:DIODE 9.32573e-05
2 *2252:A 0
3 *2251:X 0.000364372
4 *143:28 0.000905791
5 *143:24 0.00139702
6 *143:14 0.00174316
7 *143:12 0.00226222
8 *143:8 0.00146792
9 *143:12 *190:46 0.000815706
10 *143:12 *190:52 0.000352421
11 *143:14 *171:108 0.000188791
12 *143:14 *181:26 0.000136738
13 *143:14 *190:46 0.000110002
14 *143:14 *198:12 0.000251068
15 *143:14 *219:26 0.00111464
16 *143:24 *606:DIODE 5.3304e-05
17 *143:24 *171:116 0.00010919
18 *143:24 *178:34 3.055e-05
19 *143:24 *180:40 0.000372616
20 *143:24 *183:37 0.000432179
21 *143:24 *194:47 0.000433202
22 *143:28 *589:DIODE 5.3304e-05
23 *143:28 *171:116 5.61255e-06
24 *143:28 *180:40 0.000268845
25 *400:DIODE *143:12 5.52998e-05
26 *2240:B *143:12 6.53382e-05
27 *2251:B *143:8 6.08673e-06
28 *2374:D *143:24 2.64616e-05
29 *2374:RESET_B *143:24 9.55749e-05
30 *27:6 *143:12 0.000517078
31 *27:6 *143:14 0.000361232
32 *30:8 *143:28 2.08682e-05
33 *35:22 *143:14 0.00318982
34 *35:30 *143:28 0.000827829
35 *35:43 *143:28 0.000490685
36 *100:14 *143:12 0.000431551
37 *100:16 *143:12 0.000178989
38 *100:33 *143:8 0.000148229
39 *100:33 *143:12 0.000143869
40 *134:16 *143:12 0.000193739
41 *142:14 *143:8 2.07921e-05
*RES
1 *2251:X *143:8 28.4064 
2 *143:8 *143:12 26.8457 
3 *143:12 *143:14 38.2593 
4 *143:14 *143:24 44.8729 
5 *143:24 *143:28 17.6693 
6 *143:28 *2252:A 23 
7 *143:28 *402:DIODE 24.5743 
*END

*D_NET *144 0.0378251
*CONN
*I *418:DIODE I *D sky130_fd_sc_hd__diode_2
*I *414:DIODE I *D sky130_fd_sc_hd__diode_2
*I *2257:A2 I *D sky130_fd_sc_hd__a21o_1
*I *409:DIODE I *D sky130_fd_sc_hd__diode_2
*I *412:DIODE I *D sky130_fd_sc_hd__diode_2
*I *2256:B I *D sky130_fd_sc_hd__xor2_1
*I *2255:A I *D sky130_fd_sc_hd__nor2_1
*I *2258:C I *D sky130_fd_sc_hd__nand3_2
*I *2253:X O *D sky130_fd_sc_hd__and3_2
*CAP
1 *418:DIODE 0
2 *414:DIODE 0.00017831
3 *2257:A2 1.5048e-05
4 *409:DIODE 0
5 *412:DIODE 4.79803e-05
6 *2256:B 0.000335805
7 *2255:A 0.000216009
8 *2258:C 0.000102982
9 *2253:X 5.94633e-05
10 *144:93 0.00136206
11 *144:56 0.0013004
12 *144:45 0.00117274
13 *144:43 0.00147437
14 *144:37 0.00359282
15 *144:26 0.0011134
16 *144:24 0.000612376
17 *144:22 0.000772931
18 *144:16 0.00260146
19 *144:8 0.00247981
20 *412:DIODE *166:30 1.84917e-05
21 *414:DIODE *413:DIODE 3.06709e-05
22 *414:DIODE *2294:A 9.41704e-05
23 *414:DIODE *167:18 4.96717e-05
24 *2255:A *2255:B 0.000180224
25 *2255:A *145:14 5.24457e-05
26 *2256:B *2279:A 7.61229e-06
27 *2256:B *2279:B 1.358e-05
28 *2257:A2 *167:18 1.4345e-05
29 *2258:C *2258:A 8.71888e-05
30 *2258:C *196:117 0.000139346
31 *2258:C *197:68 9.67842e-05
32 *2258:C *197:90 0.000209554
33 *144:16 *177:126 0.000164455
34 *144:16 *177:136 0.000267348
35 *144:16 *177:157 0.000366051
36 *144:16 *177:166 0.000161605
37 *144:16 *182:136 6.68919e-05
38 *144:16 *200:86 0.000395205
39 *144:16 *202:92 0.000180224
40 *144:22 *185:14 0.000293355
41 *144:22 *185:78 0.000179712
42 *144:22 *205:68 0.000475298
43 *144:24 *196:117 0.00165844
44 *144:24 *197:90 0.00187783
45 *144:26 *196:117 4.08664e-05
46 *144:26 *197:90 5.3304e-05
47 *144:37 *171:62 0.000141354
48 *144:37 *172:184 0.000232314
49 *144:37 *197:20 0.000105799
50 *144:37 *197:44 0.00115984
51 *144:43 *145:14 0.00204246
52 *144:43 *186:10 0.000741401
53 *144:43 *197:20 0.000114092
54 *144:45 *2255:B 0
55 *144:56 *2242:A 0.000237002
56 *144:56 *158:22 0.000202382
57 *144:56 *191:14 0.000258321
58 *144:56 *191:16 0.000912993
59 *144:93 *507:DIODE 0.00026025
60 *144:93 *167:18 0.000556714
61 *26:18 *144:93 0.000868431
62 *26:26 *144:93 0.000465538
63 *33:10 *2256:B 5.3304e-05
64 *55:18 *144:37 0.000460595
65 *55:18 *144:43 0.000111852
66 *93:10 *144:37 0
67 *97:24 *144:37 0.000119711
68 *106:10 *144:56 0.000472579
69 *106:12 *2256:B 0.000242052
70 *106:12 *144:56 0.00174101
71 *113:8 *144:8 8.62876e-05
72 *116:14 *2256:B 0.0001106
73 *116:14 *144:56 0.000373223
74 *117:14 *144:37 0
75 *118:26 *144:37 0.00096474
76 *141:92 *144:16 0.000118072
77 *141:105 *144:16 5.95092e-05
*RES
1 *2253:X *144:8 39.2014 
2 *144:8 *144:16 48.6607 
3 *144:16 *144:22 36.4836 
4 *144:22 *144:24 21.1079 
5 *144:24 *144:26 0.621429 
6 *144:26 *2258:C 26.48 
7 *144:26 *144:37 41.2036 
8 *144:37 *144:43 47.6664 
9 *144:43 *144:45 0.849286 
10 *144:45 *2255:A 26.9564 
11 *144:45 *144:56 45.0771 
12 *144:56 *2256:B 44.815 
13 *144:56 *412:DIODE 38.6214 
14 *144:43 *409:DIODE 23 
15 *144:37 *144:93 35.8179 
16 *144:93 *2257:A2 23.4971 
17 *144:93 *414:DIODE 26.0036 
18 *144:24 *418:DIODE 23 
*END

*D_NET *145 0.0191883
*CONN
*I *410:DIODE I *D sky130_fd_sc_hd__diode_2
*I *2255:B I *D sky130_fd_sc_hd__nor2_1
*I *2254:Y O *D sky130_fd_sc_hd__a21oi_1
*CAP
1 *410:DIODE 0
2 *2255:B 0.0002376
3 *2254:Y 0.0012519
4 *145:14 0.00200303
5 *145:10 0.00398096
6 *145:8 0.00221553
7 *145:6 0.0012519
8 *145:6 *210:58 0.00144365
9 *145:10 *162:8 0.000456227
10 *145:10 *178:97 0
11 *145:10 *201:67 0
12 *2255:A *2255:B 0.000180224
13 *2255:A *145:14 5.24457e-05
14 *32:8 *2255:B 6.17437e-06
15 *46:10 *145:10 0.000188112
16 *73:16 *145:10 0.000360769
17 *101:24 *145:10 0.000106911
18 *118:24 *145:6 5.46873e-05
19 *122:45 *145:10 0.000791831
20 *122:73 *145:10 0.000157748
21 *138:28 *145:10 0.00184955
22 *138:54 *145:10 0.000329347
23 *139:8 *145:6 0.000227208
24 *139:12 *145:10 0
25 *144:43 *145:14 0.00204246
26 *144:45 *2255:B 0
*RES
1 *2254:Y *145:6 42.6786 
2 *145:6 *145:8 15 
3 *145:8 *145:10 56.4879 
4 *145:10 *145:14 39.9193 
5 *145:14 *2255:B 27.35 
6 *145:14 *410:DIODE 23 
*END

*D_NET *146 0.0147165
*CONN
*I *2259:B I *D sky130_fd_sc_hd__and3_1
*I *2257:X O *D sky130_fd_sc_hd__a21o_1
*CAP
1 *2259:B 0
2 *2257:X 0.00059509
3 *146:30 0.00150545
4 *146:20 0.002722
5 *146:8 0.00181164
6 *146:8 *2257:B1 0.00026025
7 *146:8 *197:24 0.000483374
8 *146:20 *2332:A 0.000281665
9 *146:20 *172:58 0.000183085
10 *146:20 *182:24 0.0010643
11 *146:20 *187:20 0.000229236
12 *146:20 *195:90 0.00178419
13 *146:30 *501:DIODE 2.65505e-05
14 *146:30 *147:24 0.000138007
15 *146:30 *148:12 3.67392e-05
16 *146:30 *187:20 0.00212017
17 *146:30 *187:30 2.1522e-05
18 *146:30 *192:18 0.000178517
19 *146:30 *195:50 0.000120831
20 *146:30 *195:90 0.00016556
21 *95:20 *146:20 0.000722474
22 *100:42 *146:30 3.6909e-05
23 *100:46 *146:30 0.000136743
24 *136:16 *146:30 9.21995e-05
*RES
1 *2257:X *146:8 46.2443 
2 *146:8 *146:20 49.5929 
3 *146:20 *146:30 47.6871 
4 *146:30 *2259:B 38 
*END

*D_NET *147 0.0177725
*CONN
*I *420:DIODE I *D sky130_fd_sc_hd__diode_2
*I *2259:C I *D sky130_fd_sc_hd__and3_1
*I *423:DIODE I *D sky130_fd_sc_hd__diode_2
*I *2261:B I *D sky130_fd_sc_hd__xnor2_1
*I *2258:Y O *D sky130_fd_sc_hd__nand3_2
*CAP
1 *420:DIODE 0
2 *2259:C 0
3 *423:DIODE 0
4 *2261:B 0.000231983
5 *2258:Y 0
6 *147:26 0.000231983
7 *147:24 0.00148801
8 *147:22 0.00152309
9 *147:18 0.000206087
10 *147:10 0.00104815
11 *147:8 0.0028737
12 *147:4 0.00199655
13 *2261:B *2261:A 0.000278201
14 *2261:B *198:44 0.000121084
15 *147:8 *417:DIODE 5.41288e-05
16 *147:8 *2258:A 1.94693e-05
17 *147:10 *179:190 0.000201252
18 *147:10 *192:26 0.000787801
19 *147:10 *192:140 0.00135624
20 *147:24 *167:38 4.3053e-05
21 *147:24 *167:44 1.85903e-05
22 *2259:A *147:18 0.000152816
23 *2259:A *147:22 6.75241e-05
24 *17:8 *147:24 0
25 *17:22 *147:24 0
26 *26:10 *147:10 0.000533849
27 *26:10 *147:18 2.12195e-05
28 *32:12 *147:10 0.000654946
29 *35:10 *2261:B 5.69373e-05
30 *35:10 *147:24 0
31 *100:33 *147:24 2.36182e-05
32 *100:42 *147:24 6.03271e-05
33 *100:65 *147:10 0.000168862
34 *100:65 *147:18 0.000116375
35 *125:26 *147:24 0.00261423
36 *127:20 *147:10 0.000158029
37 *127:20 *147:24 0.000325786
38 *134:218 *147:18 6.2088e-05
39 *134:224 *147:18 0.000104967
40 *134:224 *147:22 3.35277e-05
41 *140:14 *147:24 0
42 *146:30 *147:24 0.000138007
*RES
1 *2258:Y *147:4 23 
2 *147:4 *147:8 46.1129 
3 *147:8 *147:10 33.2464 
4 *147:10 *147:18 19.5364 
5 *147:18 *147:22 15.7871 
6 *147:22 *147:24 38.1764 
7 *147:24 *147:26 15 
8 *147:26 *2261:B 28.9036 
9 *147:26 *423:DIODE 23 
10 *147:18 *2259:C 23 
11 *147:10 *420:DIODE 38 
*END

*D_NET *148 0.0188148
*CONN
*I *2260:A I *D sky130_fd_sc_hd__buf_1
*I *421:DIODE I *D sky130_fd_sc_hd__diode_2
*I *2259:X O *D sky130_fd_sc_hd__and3_1
*CAP
1 *2260:A 0.000100142
2 *421:DIODE 0
3 *2259:X 8.81744e-05
4 *148:20 0.000178713
5 *148:14 0.00348175
6 *148:12 0.00417764
7 *148:8 0.000862634
8 *2260:A *179:14 0.000143869
9 *2260:A *215:20 2.32101e-05
10 *148:12 *187:68 0.000679505
11 *148:14 *2324:A 0.000136738
12 *148:14 *162:12 0.00220998
13 *148:14 *172:214 0.000415593
14 *148:14 *178:74 0.000162154
15 *148:14 *178:93 0.000440986
16 *2217:A *148:14 9.43908e-05
17 *17:8 *148:12 0
18 *47:14 *148:14 0.00284028
19 *57:6 *2260:A 0.000140313
20 *57:12 *148:20 0.000163361
21 *72:6 *148:14 0.000321196
22 *106:68 *148:20 0.000163361
23 *127:20 *148:12 0.00021838
24 *134:109 *148:14 0.00157825
25 *134:224 *148:8 0.000141095
26 *136:16 *148:12 1.63905e-05
27 *146:30 *148:12 3.67392e-05
*RES
1 *2259:X *148:8 39.5743 
2 *148:8 *148:12 34.1607 
3 *148:12 *148:14 79.7086 
4 *148:14 *148:20 32.2579 
5 *148:20 *421:DIODE 23 
6 *148:20 *2260:A 25.9 
*END

*D_NET *149 0.0240911
*CONN
*I *2263:C I *D sky130_fd_sc_hd__and3_1
*I *429:DIODE I *D sky130_fd_sc_hd__diode_2
*I *2262:X O *D sky130_fd_sc_hd__and3_1
*CAP
1 *2263:C 0.000136746
2 *429:DIODE 0
3 *2262:X 4.16599e-05
4 *149:32 0.000136746
5 *149:30 0.00547435
6 *149:10 0.00692836
7 *149:8 0.00149568
8 *2263:C *2263:A 5.3304e-05
9 *2263:C *150:10 6.04112e-05
10 *2263:C *181:194 8.48502e-06
11 *149:8 *182:46 5.67058e-05
12 *149:10 *153:22 0.000570704
13 *149:10 *184:99 0.00021356
14 *149:10 *195:64 0.000270153
15 *149:10 *195:72 0.00144957
16 *149:10 *209:10 0.000251155
17 *149:30 *150:16 1.39848e-05
18 *149:30 *152:26 0.00106872
19 *149:30 *177:104 0.000121284
20 *149:30 *198:68 0.000151253
21 *149:30 *206:40 0.000173453
22 *149:30 *209:140 0
23 *2365:RESET_B *149:30 8.4047e-05
24 *19:10 *149:30 0.000296342
25 *27:10 *149:10 0.00200794
26 *75:22 *149:10 0.000250321
27 *75:32 *149:10 3.11878e-05
28 *96:46 *149:30 0.000141894
29 *97:24 *149:30 0.00123974
30 *99:29 *149:10 0.000344541
31 *101:24 *149:30 0
32 *120:14 *149:10 2.26159e-05
33 *122:37 *149:10 0.000261785
34 *127:20 *149:30 0.000193251
35 *138:26 *149:30 0.000541175
*RES
1 *2262:X *149:8 38.6214 
2 *149:8 *149:10 43.9868 
3 *149:10 *149:30 47.7894 
4 *149:30 *149:32 15 
5 *149:32 *429:DIODE 23 
6 *149:32 *2263:C 24.6571 
*END

*D_NET *150 0.0111881
*CONN
*I *2264:B I *D sky130_fd_sc_hd__and2_2
*I *2272:B I *D sky130_fd_sc_hd__and3_2
*I *2263:X O *D sky130_fd_sc_hd__and3_1
*CAP
1 *2264:B 0
2 *2272:B 0
3 *2263:X 9.69535e-05
4 *150:35 0.0012017
5 *150:29 0.00193054
6 *150:16 0.00100983
7 *150:10 0.00183563
8 *150:10 *181:194 7.43209e-05
9 *150:16 *154:10 0.000720239
10 *150:16 *177:8 6.12005e-05
11 *150:16 *177:12 1.94812e-05
12 *150:16 *177:84 5.12741e-05
13 *150:16 *177:95 2.64459e-05
14 *150:16 *177:104 3.34818e-06
15 *150:16 *215:16 0.000171765
16 *150:16 *215:20 0.000400499
17 *150:29 *154:10 0.000589076
18 *150:29 *177:124 1.7992e-05
19 *150:29 *183:150 0
20 *150:29 *216:10 0
21 *150:35 *2207:A 0.000169339
22 *150:35 *151:10 2.8661e-05
23 *2263:C *150:10 6.04112e-05
24 *2264:A *150:35 0.000147656
25 *2365:RESET_B *150:16 0.000107212
26 *2365:RESET_B *150:29 0.000408255
27 *81:6 *150:35 0.00185472
28 *119:97 *150:29 1.1997e-05
29 *129:39 *150:29 7.86661e-05
30 *134:141 *150:35 9.69397e-05
31 *149:30 *150:16 1.39848e-05
*RES
1 *2263:X *150:10 40.0714 
2 *150:10 *150:16 33.2493 
3 *150:16 *2272:B 23 
4 *150:10 *150:29 30.8257 
5 *150:29 *150:35 28.8964 
6 *150:35 *2264:B 23 
*END

*D_NET *151 0.0326916
*CONN
*I *446:DIODE I *D sky130_fd_sc_hd__diode_2
*I *434:DIODE I *D sky130_fd_sc_hd__diode_2
*I *2266:A2 I *D sky130_fd_sc_hd__a21oi_2
*I *2267:C I *D sky130_fd_sc_hd__and3_1
*I *432:DIODE I *D sky130_fd_sc_hd__diode_2
*I *2265:B I *D sky130_fd_sc_hd__xor2_1
*I *438:DIODE I *D sky130_fd_sc_hd__diode_2
*I *2270:D I *D sky130_fd_sc_hd__and4_1
*I *2264:X O *D sky130_fd_sc_hd__and2_2
*CAP
1 *446:DIODE 0
2 *434:DIODE 0.00026772
3 *2266:A2 2.34823e-05
4 *2267:C 4.38991e-05
5 *432:DIODE 0
6 *2265:B 0.000144449
7 *438:DIODE 0.000339076
8 *2270:D 8.02656e-05
9 *2264:X 0.000305642
10 *151:121 0.000924308
11 *151:96 0.00042143
12 *151:94 0.00140233
13 *151:90 0.00184415
14 *151:71 0.00109034
15 *151:69 0.000399006
16 *151:61 0.00192479
17 *151:45 0.00255195
18 *151:39 0.00229079
19 *151:28 0.000890775
20 *151:22 0.000169057
21 *151:16 0.00105921
22 *151:10 0.00129843
23 *434:DIODE *435:DIODE 0.000137368
24 *434:DIODE *2266:A1 5.25436e-05
25 *434:DIODE *200:134 5.24457e-05
26 *438:DIODE *154:10 6.2088e-05
27 *438:DIODE *172:21 0
28 *438:DIODE *199:122 0.000268173
29 *438:DIODE *218:52 1.00084e-05
30 *2265:B *2265:A 0.000409468
31 *2266:A2 *435:DIODE 0
32 *2270:D *204:18 4.92284e-05
33 *151:16 *443:DIODE 0.00014196
34 *151:16 *2270:A 0.000181131
35 *151:16 *184:144 1.56762e-05
36 *151:16 *184:155 0.000110389
37 *151:16 *195:132 0.000863743
38 *151:16 *199:29 9.5877e-05
39 *151:22 *2270:A 4.21048e-05
40 *151:22 *184:140 1.01436e-05
41 *151:22 *204:18 3.55815e-05
42 *151:22 *211:66 5.56279e-05
43 *151:28 *2270:A 8.60634e-05
44 *151:28 *2270:C 3.51823e-05
45 *151:28 *199:59 3.7122e-06
46 *151:28 *204:18 0.00010762
47 *151:28 *211:66 0.000232125
48 *151:39 *199:10 2.1744e-05
49 *151:39 *199:40 9.1946e-06
50 *151:39 *200:86 0.000134577
51 *151:39 *201:91 3.35253e-05
52 *151:39 *204:18 0
53 *151:45 *204:30 0
54 *151:45 *204:45 5.56356e-05
55 *151:45 *204:57 9.41704e-05
56 *151:61 *154:10 0
57 *151:61 *172:38 0.000144812
58 *151:61 *175:168 0.000213171
59 *151:61 *203:44 0
60 *151:61 *203:154 0.000163586
61 *151:61 *211:34 3.11577e-05
62 *151:69 *154:10 0.000103339
63 *151:69 *172:38 0
64 *151:71 *154:10 4.86599e-05
65 *151:71 *218:52 4.73396e-05
66 *151:90 *153:8 0.00016105
67 *151:90 *173:45 0.000116419
68 *151:90 *175:10 9.77405e-05
69 *151:90 *183:12 9.36891e-05
70 *151:90 *194:32 9.66585e-05
71 *151:90 *199:122 3.27248e-05
72 *151:90 *199:132 0.000326176
73 *151:90 *210:125 3.7122e-06
74 *151:90 *218:38 0.000800366
75 *151:94 *175:24 6.20238e-05
76 *151:94 *175:33 0.000377998
77 *151:94 *183:51 0
78 *151:94 *183:101 0
79 *151:94 *190:88 0
80 *151:94 *213:12 0
81 *151:96 *164:14 0.000534625
82 *151:121 *2266:A1 5.40971e-05
83 *151:121 *180:169 5.36548e-05
84 *151:121 *200:78 0.000106167
85 *151:121 *200:134 3.28795e-05
86 *374:DIODE *151:61 0.000132744
87 *2264:A *151:10 6.17437e-06
88 *2352:D *151:121 0.000233367
89 *21:20 *2265:B 0.000117885
90 *33:26 *151:69 0.000309205
91 *36:14 *2265:B 0.000452152
92 *36:14 *151:96 8.52887e-05
93 *41:8 *151:94 0.000329147
94 *80:18 *151:61 0.000452316
95 *103:8 *151:90 0.000629256
96 *104:12 *151:10 0
97 *106:88 *151:22 1.74959e-05
98 *107:10 *151:94 0.00204314
99 *108:18 *151:61 0
100 *113:8 *151:10 0
101 *128:14 *151:39 0.000802596
102 *128:14 *151:45 0.00135267
103 *128:14 *151:61 0.00089476
104 *129:39 *2270:D 0
105 *129:39 *151:39 0
106 *129:41 *151:39 1.43557e-05
107 *129:41 *151:61 7.50931e-05
108 *134:141 *151:16 0.000135037
109 *150:35 *151:10 2.8661e-05
*RES
1 *2264:X *151:10 42.6607 
2 *151:10 *151:16 49.6786 
3 *151:16 *151:22 16.4707 
4 *151:22 *151:28 18.0243 
5 *151:28 *2270:D 39.0979 
6 *151:28 *151:39 14.5829 
7 *151:39 *151:45 35.0307 
8 *151:45 *151:61 47.8529 
9 *151:61 *151:69 35.0336 
10 *151:69 *151:71 0.849286 
11 *151:71 *438:DIODE 42.4743 
12 *151:71 *151:90 48.2493 
13 *151:90 *151:94 43.3164 
14 *151:94 *151:96 7.29143 
15 *151:96 *2265:B 29.3386 
16 *151:96 *432:DIODE 23 
17 *151:69 *2267:C 38.7302 
18 *151:39 *151:121 25.6264 
19 *151:121 *2266:A2 23.4971 
20 *151:121 *434:DIODE 27.4329 
21 *151:22 *446:DIODE 23 
*END

*D_NET *152 0.0240052
*CONN
*I *439:DIODE I *D sky130_fd_sc_hd__diode_2
*I *2268:A I *D sky130_fd_sc_hd__nor2_1
*I *2266:Y O *D sky130_fd_sc_hd__a21oi_2
*CAP
1 *439:DIODE 0
2 *2268:A 0.000300614
3 *2266:Y 5.42331e-05
4 *152:44 0.000678043
5 *152:36 0.00169605
6 *152:26 0.00419598
7 *152:16 0.00365616
8 *152:8 0.000833034
9 *2268:A *153:61 6.6054e-05
10 *2268:A *153:69 6.41127e-05
11 *152:8 *185:28 0.00019747
12 *152:8 *186:117 0.00019747
13 *152:16 *479:DIODE 7.15126e-05
14 *152:16 *2287:C 4.18667e-05
15 *152:16 *154:10 1.98354e-05
16 *152:16 *163:10 0.000135037
17 *152:16 *181:194 0.000311537
18 *152:26 *158:22 0
19 *152:26 *201:67 0.000418371
20 *152:36 *2314:A 3.7681e-05
21 *152:36 *171:34 0.000602889
22 *152:36 *171:41 1.92253e-05
23 *152:36 *171:62 0.000794756
24 *152:36 *209:43 0.000737223
25 *152:44 *153:61 2.92911e-06
26 *17:8 *152:44 0.00118956
27 *37:12 *152:36 0.00254768
28 *82:12 *152:26 0.000170883
29 *96:46 *152:26 0.000108074
30 *127:20 *152:26 0
31 *129:41 *152:16 1.68638e-05
32 *138:26 *152:26 0.000103236
33 *140:14 *152:44 0.00117704
34 *141:68 *152:16 2.26497e-05
35 *141:68 *152:26 0.00186431
36 *141:77 *152:16 0.000142173
37 *141:90 *152:16 0.00046194
38 *149:30 *152:26 0.00106872
*RES
1 *2266:Y *152:8 40.61 
2 *152:8 *152:16 44.9868 
3 *152:16 *152:26 43.8807 
4 *152:26 *152:36 39.7714 
5 *152:36 *152:44 46.2607 
6 *152:44 *2268:A 29.2557 
7 *152:44 *439:DIODE 23 
*END

*D_NET *153 0.0220156
*CONN
*I *442:DIODE I *D sky130_fd_sc_hd__diode_2
*I *440:DIODE I *D sky130_fd_sc_hd__diode_2
*I *2268:B I *D sky130_fd_sc_hd__nor2_1
*I *2269:B I *D sky130_fd_sc_hd__xor2_1
*I *2267:X O *D sky130_fd_sc_hd__and3_1
*CAP
1 *442:DIODE 0
2 *440:DIODE 0
3 *2268:B 0
4 *2269:B 1.29283e-05
5 *2267:X 0.000847367
6 *153:69 0.000184068
7 *153:61 0.000730689
8 *153:55 0.00118488
9 *153:45 0.00217964
10 *153:30 0.00178909
11 *153:22 0.00357306
12 *153:8 0.00418565
13 *153:8 *175:10 9.77405e-05
14 *153:8 *199:132 0.000265023
15 *153:8 *218:38 0.000300999
16 *153:22 *2380:A 4.30108e-05
17 *153:22 *166:66 9.56369e-05
18 *153:22 *173:45 3.22986e-05
19 *153:22 *194:32 0.000188341
20 *153:22 *195:64 0.000565473
21 *153:22 *204:82 9.35082e-05
22 *153:22 *204:104 0.000271906
23 *153:22 *218:30 8.86126e-06
24 *153:30 *184:54 0.000234085
25 *153:45 *187:32 8.62783e-05
26 *153:45 *201:48 1.11037e-05
27 *153:55 *526:DIODE 3.82058e-06
28 *153:55 *171:16 2.03764e-06
29 *2268:A *153:61 6.6054e-05
30 *2268:A *153:69 6.41127e-05
31 *2359:D *2269:B 7.51453e-06
32 *2359:D *153:45 0.000854488
33 *17:8 *153:61 0.00126238
34 *68:8 *153:55 0.000303724
35 *75:32 *153:22 0
36 *101:24 *153:22 1.35259e-05
37 *114:10 *153:69 3.3123e-05
38 *116:34 *2269:B 5.50106e-05
39 *116:34 *153:30 8.264e-05
40 *131:14 *153:45 4.69711e-05
41 *132:18 *153:22 0
42 *134:8 *153:45 8.4047e-05
43 *136:46 *153:22 0.000173285
44 *140:14 *153:61 0.00124655
45 *149:10 *153:22 0.000570704
46 *151:90 *153:8 0.00016105
47 *152:44 *153:61 2.92911e-06
*RES
1 *2267:X *153:8 49.1029 
2 *153:8 *153:22 49.1638 
3 *153:22 *153:30 34.4121 
4 *153:30 *2269:B 23.6214 
5 *153:30 *153:45 35.6521 
6 *153:45 *153:55 38.41 
7 *153:55 *153:61 34.2229 
8 *153:61 *153:69 32.9 
9 *153:69 *2268:B 23 
10 *153:61 *440:DIODE 23 
11 *153:22 *442:DIODE 23 
*END

*D_NET *154 0.0117008
*CONN
*I *2273:A2 I *D sky130_fd_sc_hd__o21ba_1
*I *2270:X O *D sky130_fd_sc_hd__and4_1
*CAP
1 *2273:A2 0.000224391
2 *2270:X 6.75801e-05
3 *154:10 0.0035641
4 *154:8 0.00340729
5 *2273:A2 *2273:A1 5.5387e-05
6 *2273:A2 *189:20 0.00039011
7 *154:8 *199:59 2.64616e-05
8 *154:8 *201:78 5.56356e-05
9 *154:8 *201:85 8.65377e-05
10 *154:10 *156:153 4.08641e-05
11 *154:10 *169:102 0.000462686
12 *154:10 *169:158 0.00141265
13 *154:10 *172:38 0
14 *154:10 *177:12 0
15 *154:10 *199:59 4.334e-05
16 *154:10 *203:154 4.06408e-05
17 *154:10 *204:57 0
18 *438:DIODE *154:10 6.2088e-05
19 *55:26 *154:10 6.6869e-05
20 *108:18 *154:10 7.45953e-05
21 *115:66 *154:10 5.90667e-05
22 *129:39 *154:10 3.17598e-05
23 *129:41 *154:10 0
24 *141:68 *154:10 4.75766e-05
25 *150:16 *154:10 0.000720239
26 *150:29 *154:10 0.000589076
27 *151:61 *154:10 0
28 *151:69 *154:10 0.000103339
29 *151:71 *154:10 4.86599e-05
30 *152:16 *154:10 1.98354e-05
*RES
1 *2270:X *154:8 39.5743 
2 *154:8 *154:10 67.4043 
3 *154:10 *2273:A2 42.93 
*END

*D_NET *155 0.00556147
*CONN
*I *2272:C I *D sky130_fd_sc_hd__and3_2
*I *2271:X O *D sky130_fd_sc_hd__and4_1
*CAP
1 *2272:C 0
2 *2271:X 0.000356228
3 *155:14 0.000866688
4 *155:8 0.00122292
5 *155:8 *470:DIODE 9.84851e-05
6 *155:8 *2271:C 0.000100069
7 *155:8 *199:59 1.3523e-05
8 *155:8 *202:96 0.000133309
9 *155:14 *470:DIODE 6.05705e-05
10 *155:14 *472:DIODE 0.000161121
11 *155:14 *162:20 2.02872e-05
12 *155:14 *180:134 0.000299187
13 *155:14 *181:177 4.6318e-06
14 *155:14 *181:194 0.000428466
15 *155:14 *182:128 0.00128816
16 *155:14 *202:92 1.02029e-05
17 *2272:A *155:14 9.58714e-05
18 *36:30 *155:14 3.35885e-06
19 *103:34 *155:14 0
20 *119:97 *155:8 0.000390685
21 *119:97 *155:14 7.71219e-06
*RES
1 *2271:X *155:8 46.2443 
2 *155:8 *155:14 37.4957 
3 *155:14 *2272:C 23 
*END

*D_NET *156 0.0324188
*CONN
*I *2280:D I *D sky130_fd_sc_hd__and4_1
*I *469:DIODE I *D sky130_fd_sc_hd__diode_2
*I *461:DIODE I *D sky130_fd_sc_hd__diode_2
*I *2273:B1_N I *D sky130_fd_sc_hd__o21ba_1
*I *453:DIODE I *D sky130_fd_sc_hd__diode_2
*I *2274:B I *D sky130_fd_sc_hd__and2_1
*I *455:DIODE I *D sky130_fd_sc_hd__diode_2
*I *2277:C I *D sky130_fd_sc_hd__nand3_2
*I *457:DIODE I *D sky130_fd_sc_hd__diode_2
*I *2275:B I *D sky130_fd_sc_hd__nor2_1
*I *2272:X O *D sky130_fd_sc_hd__and3_2
*CAP
1 *2280:D 0
2 *469:DIODE 0
3 *461:DIODE 4.62604e-05
4 *2273:B1_N 0
5 *453:DIODE 0
6 *2274:B 0.000126895
7 *455:DIODE 0
8 *2277:C 0
9 *457:DIODE 0
10 *2275:B 0.000228135
11 *2272:X 0
12 *156:153 0.000118214
13 *156:140 0.000834119
14 *156:101 0.000337805
15 *156:93 0.00291741
16 *156:91 0.0027065
17 *156:89 0.000267927
18 *156:77 0.00134072
19 *156:71 0.00127092
20 *156:65 0.000802501
21 *156:57 0.00101068
22 *156:49 0.000497487
23 *156:42 0.000207983
24 *156:38 0.00143546
25 *156:14 0.000883749
26 *156:4 0.0012121
27 *461:DIODE *203:68 4.67488e-05
28 *461:DIODE *204:63 8.17328e-05
29 *2274:B *2274:A 0.000113217
30 *2274:B *157:25 0.000460454
31 *2274:B *203:26 0.000100047
32 *2275:B *456:DIODE 5.50049e-05
33 *2275:B *182:136 2.47702e-05
34 *2275:B *203:103 4.21378e-05
35 *156:14 *456:DIODE 9.41704e-05
36 *156:14 *205:68 0.0011027
37 *156:14 *215:16 7.64944e-05
38 *156:38 *180:86 0.000182585
39 *156:38 *180:107 0.000557708
40 *156:38 *182:128 1.49079e-05
41 *156:38 *205:58 0.000770752
42 *156:38 *205:68 0.000210055
43 *156:38 *215:16 2.02872e-05
44 *156:42 *205:58 0.000480121
45 *156:49 *203:68 4.67488e-05
46 *156:49 *204:63 9.66585e-05
47 *156:57 *178:48 0.000469629
48 *156:57 *178:74 0.000156693
49 *156:57 *182:113 5.91105e-05
50 *156:57 *217:32 0.000135037
51 *156:65 *2245:C 0.000254553
52 *156:65 *175:10 8.15422e-05
53 *156:65 *178:48 0.000115803
54 *156:65 *192:92 0.000504563
55 *156:71 *175:10 0.00011378
56 *156:71 *175:16 8.30586e-05
57 *156:71 *178:6 5.5792e-05
58 *156:71 *214:22 4.03172e-05
59 *156:77 *175:16 5.58003e-05
60 *156:77 *178:6 5.58003e-05
61 *156:77 *178:10 9.21995e-05
62 *156:77 *199:132 0
63 *156:77 *205:14 0.000197188
64 *156:77 *205:58 0.000370091
65 *156:89 *279:DIODE 0.000189857
66 *156:89 *179:100 0.000141805
67 *156:89 *203:20 0.000320097
68 *156:93 *2284:A 0.000102944
69 *156:93 *203:20 0.000135037
70 *156:93 *203:26 0.00112004
71 *156:93 *220:59 0.000125059
72 *156:101 *157:25 0.000282914
73 *156:101 *203:26 0.000535884
74 *156:140 *413:DIODE 0.000137651
75 *156:140 *203:66 6.63464e-06
76 *156:140 *216:14 8.71888e-05
77 *156:153 *203:154 8.50457e-05
78 *2374:D *156:77 0.000214259
79 *2374:RESET_B *156:77 0.000746906
80 *16:8 *156:65 0.000213124
81 *16:8 *156:71 0.000244876
82 *103:14 *156:65 0.00095069
83 *115:70 *156:140 0.000140259
84 *115:70 *156:153 8.76309e-05
85 *130:38 *156:14 0.00110483
86 *132:28 *156:38 0.000112538
87 *132:28 *156:42 0.000481032
88 *132:28 *156:57 0.000702522
89 *135:10 *156:77 0.000445981
90 *154:10 *156:153 4.08641e-05
*RES
1 *2272:X *156:4 23 
2 *156:4 *156:14 47.9593 
3 *156:14 *2275:B 26.3764 
4 *156:14 *457:DIODE 23 
5 *156:4 *156:38 30.6186 
6 *156:38 *156:42 21.4836 
7 *156:42 *2277:C 23 
8 *156:42 *156:49 1.09786 
9 *156:49 *156:57 41.2271 
10 *156:57 *156:65 32.11 
11 *156:65 *156:71 20.365 
12 *156:71 *156:77 41.1207 
13 *156:77 *156:89 35.5721 
14 *156:89 *156:91 15 
15 *156:91 *156:93 39.6886 
16 *156:93 *156:101 36.7114 
17 *156:101 *455:DIODE 23 
18 *156:101 *2274:B 28.9036 
19 *156:71 *453:DIODE 23 
20 *156:65 *2273:B1_N 38 
21 *156:49 *461:DIODE 24.0979 
22 *156:38 *156:140 23.7207 
23 *156:140 *469:DIODE 23 
24 *156:140 *156:153 32.2993 
25 *156:153 *2280:D 23 
*END

*D_NET *157 0.0107851
*CONN
*I *2278:A2 I *D sky130_fd_sc_hd__o21a_1
*I *2276:A I *D sky130_fd_sc_hd__nor2_1
*I *2274:X O *D sky130_fd_sc_hd__and2_1
*CAP
1 *2278:A2 0
2 *2276:A 0
3 *2274:X 0
4 *157:31 0.000964842
5 *157:25 0.00252694
6 *157:12 0.000560477
7 *157:4 0.00212257
8 *157:12 *179:118 0.000100661
9 *157:12 *188:42 0.000117368
10 *157:12 *188:50 7.4099e-05
11 *157:12 *189:60 4.33627e-05
12 *157:12 *189:64 0.000187363
13 *157:25 *189:60 0.000102971
14 *157:25 *203:26 0.00139818
15 *157:25 *208:62 0.000398014
16 *157:31 *2278:A1 5.67058e-05
17 *157:31 *159:24 0.000427037
18 *2274:B *157:25 0.000460454
19 *21:24 *157:31 0
20 *55:12 *157:31 0.00052939
21 *94:26 *157:31 3.58358e-05
22 *94:41 *157:31 0.00014196
23 *119:62 *157:25 0.000236355
24 *121:20 *157:31 1.76557e-05
25 *156:101 *157:25 0.000282914
*RES
1 *2274:X *157:4 23 
2 *157:4 *157:12 41.0821 
3 *157:12 *2276:A 23 
4 *157:4 *157:25 48.1843 
5 *157:25 *157:31 34.72 
6 *157:31 *2278:A2 23 
*END

*D_NET *158 0.0256134
*CONN
*I *2276:B I *D sky130_fd_sc_hd__nor2_1
*I *458:DIODE I *D sky130_fd_sc_hd__diode_2
*I *2275:Y O *D sky130_fd_sc_hd__nor2_1
*CAP
1 *2276:B 2.05586e-05
2 *458:DIODE 0.000183155
3 *2275:Y 2.1804e-05
4 *158:24 0.00170481
5 *158:22 0.00958574
6 *158:10 0.00810644
7 *458:DIODE *183:80 0
8 *2276:B *2178:A 0.000100477
9 *158:10 *203:96 2.33476e-05
10 *158:22 *163:50 4.02281e-06
11 *158:22 *173:79 7.51535e-06
12 *158:22 *191:12 0.000365444
13 *158:22 *191:14 0.000142841
14 *158:22 *191:16 0.000127211
15 *158:22 *193:10 0.000116881
16 *158:24 *174:80 9.168e-05
17 *158:24 *179:118 0.000103123
18 *158:24 *179:129 0.000106719
19 *158:24 *179:142 0.000869876
20 *158:24 *179:168 0.000388942
21 *158:24 *181:46 0.000163352
22 *26:10 *158:24 0.00120559
23 *31:14 *158:22 0.00101305
24 *40:6 *2276:B 0.000100477
25 *90:20 *158:22 0
26 *106:12 *158:22 0.000149785
27 *115:34 *158:22 0.000211312
28 *116:72 *158:22 0.00023265
29 *119:85 *158:10 1.05658e-05
30 *127:20 *158:22 0
31 *127:20 *158:24 0.000149504
32 *133:16 *158:22 0.000104142
33 *136:14 *158:22 0
34 *136:46 *158:22 0
35 *141:68 *158:22 0
36 *144:56 *158:22 0.000202382
37 *152:26 *158:22 0
*RES
1 *2275:Y *158:10 46.3211 
2 *158:10 *158:22 43.2677 
3 *158:22 *158:24 41.8739 
4 *158:24 *458:DIODE 40.2579 
5 *158:24 *2276:B 39.0979 
*END

*D_NET *159 0.0209694
*CONN
*I *465:DIODE I *D sky130_fd_sc_hd__diode_2
*I *2279:B I *D sky130_fd_sc_hd__xnor2_1
*I *463:DIODE I *D sky130_fd_sc_hd__diode_2
*I *2278:B1 I *D sky130_fd_sc_hd__o21a_1
*I *2277:Y O *D sky130_fd_sc_hd__nand3_2
*CAP
1 *465:DIODE 0
2 *2279:B 0.000283496
3 *463:DIODE 0.000104308
4 *2278:B1 0
5 *2277:Y 0.00141054
6 *159:40 0.00149588
7 *159:24 0.00107323
8 *159:18 0.00292244
9 *159:16 0.00113627
10 *159:6 0.00180568
11 *463:DIODE *2278:A1 0.000213869
12 *2279:B *2279:A 0.000146956
13 *2279:B *189:52 0.000525758
14 *2279:B *206:14 3.66663e-05
15 *159:6 *2210:A 4.67488e-05
16 *159:6 *182:18 0.000306144
17 *159:18 *212:20 0.000838293
18 *159:18 *213:20 8.36198e-05
19 *159:24 *2278:A1 0.000139346
20 *159:40 *189:52 0.000258114
21 *159:40 *206:14 0.000375135
22 *159:40 *213:24 0.000713336
23 *159:40 *213:30 0.00014398
24 *2256:B *2279:B 1.358e-05
25 *7:17 *159:16 0.000109447
26 *21:24 *159:18 0.00158898
27 *21:24 *159:24 0.00102571
28 *43:10 *2279:B 6.29811e-05
29 *51:8 *159:6 9.41704e-05
30 *60:12 *159:16 0.000575739
31 *60:12 *159:18 0.000304514
32 *60:12 *159:24 0.000300661
33 *80:8 *159:6 9.08709e-06
34 *94:26 *159:24 4.96717e-05
35 *96:20 *159:40 0.000782167
36 *117:14 *159:16 0.000580566
37 *117:26 *159:16 0.000150359
38 *119:24 *159:6 0.000285453
39 *119:26 *159:6 0.000133172
40 *119:38 *159:6 0.000171019
41 *121:8 *159:40 0.000138859
42 *121:12 *159:24 0.000106419
43 *157:31 *159:24 0.000427037
*RES
1 *2277:Y *159:6 41.2493 
2 *159:6 *159:16 39.3818 
3 *159:16 *159:18 22.1539 
4 *159:18 *159:24 39.3807 
5 *159:24 *2278:B1 23 
6 *159:24 *463:DIODE 25.5271 
7 *159:18 *159:40 44.2071 
8 *159:40 *2279:B 31.0371 
9 *159:40 *465:DIODE 23 
*END

*D_NET *160 0.00494573
*CONN
*I *2281:B I *D sky130_fd_sc_hd__xor2_1
*I *2280:X O *D sky130_fd_sc_hd__and4_1
*CAP
1 *2281:B 0
2 *2280:X 0.000660108
3 *160:12 0.000217201
4 *160:6 0.000877309
5 *160:6 *395:DIODE 1.59094e-05
6 *160:6 *506:DIODE 7.03636e-05
7 *160:6 *2280:C 0.000262858
8 *160:6 *2299:A1 0.000136743
9 *160:6 *2299:A2 9.41704e-05
10 *160:6 *180:82 0.000136743
11 *160:6 *181:150 0.000472412
12 *160:6 *204:57 0.000181125
13 *160:6 *215:8 0.000591496
14 *160:12 *2281:A 7.45953e-05
15 *160:12 *207:29 0.000345329
16 *23:20 *160:12 1.87151e-05
17 *39:32 *160:12 0.000314324
18 *44:10 *160:12 4.15283e-06
19 *115:66 *160:6 0.000328764
20 *132:28 *160:6 0.000143408
*RES
1 *2280:X *160:6 40.7729 
2 *160:6 *160:12 35.7793 
3 *160:12 *2281:B 23 
*END

*D_NET *161 0.0134026
*CONN
*I *2283:A I *D sky130_fd_sc_hd__buf_2
*I *2282:X O *D sky130_fd_sc_hd__or3_1
*CAP
1 *2283:A 0
2 *2282:X 0.000269484
3 *161:22 0.00170705
4 *161:10 0.00289579
5 *161:8 0.00145823
6 *161:8 *177:126 4.2062e-05
7 *161:8 *177:136 1.21972e-05
8 *161:10 *2280:C 6.01895e-05
9 *161:10 *177:8 0.000210582
10 *161:10 *177:12 0.000810045
11 *161:10 *177:84 0.000198527
12 *161:10 *177:95 7.869e-05
13 *161:10 *177:104 0.000170168
14 *161:10 *177:124 0.00035568
15 *161:10 *180:156 0.000357624
16 *161:10 *183:150 0.000113733
17 *161:10 *204:57 0.000599561
18 *161:10 *206:56 0.000110913
19 *161:10 *216:10 0.000787778
20 *161:22 *2336:A 0.00014384
21 *161:22 *169:160 0.00179815
22 *161:22 *204:57 2.93335e-05
23 *2365:D *161:8 0.000137651
24 *42:20 *161:10 0.000295562
25 *55:26 *161:10 2.86716e-05
26 *65:18 *161:22 0.000694041
27 *84:6 *161:22 2.48018e-05
28 *115:66 *161:10 1.22803e-05
*RES
1 *2282:X *161:8 41.48 
2 *161:8 *161:10 35.0071 
3 *161:10 *161:22 46.4443 
4 *161:22 *2283:A 23 
*END

*D_NET *162 0.0193108
*CONN
*I *475:DIODE I *D sky130_fd_sc_hd__diode_2
*I *2285:A2 I *D sky130_fd_sc_hd__a21oi_1
*I *2284:Y O *D sky130_fd_sc_hd__inv_2
*CAP
1 *475:DIODE 0.000112321
2 *2285:A2 0
3 *2284:Y 0
4 *162:20 0.000551434
5 *162:12 0.00162379
6 *162:8 0.00394665
7 *162:6 0.00276198
8 *475:DIODE *2285:B1 0.000140259
9 *475:DIODE *215:16 0.000179311
10 *475:DIODE *215:20 4.6595e-05
11 *162:8 *2197:B 3.66949e-05
12 *162:8 *2337:A 4.4382e-05
13 *162:8 *2339:A 2.27474e-05
14 *162:8 *169:44 0.000700331
15 *162:8 *183:57 0.000160072
16 *162:8 *183:63 0.000139882
17 *162:8 *189:30 0.000232361
18 *162:8 *194:95 4.11274e-05
19 *162:8 *198:20 0
20 *162:8 *209:140 0.000105541
21 *162:8 *220:59 0
22 *162:12 *258:DIODE 0.000100061
23 *162:12 *178:74 0.000557764
24 *162:20 *203:96 0.000238194
25 *162:20 *215:16 0.000389777
26 *2272:A *162:20 0.000219383
27 *46:10 *162:8 0.00198162
28 *73:16 *162:8 0
29 *101:24 *162:8 0.000118027
30 *116:50 *162:8 4.44951e-05
31 *119:24 *162:20 2.01531e-05
32 *119:40 *162:8 0.00167604
33 *119:85 *162:20 7.8128e-05
34 *134:161 *162:20 5.50049e-05
35 *134:169 *162:20 0.000300209
36 *145:10 *162:8 0.000456227
37 *148:14 *162:12 0.00220998
38 *155:14 *162:20 2.02872e-05
*RES
1 *2284:Y *162:6 38 
2 *162:6 *162:8 69.165 
3 *162:8 *162:12 39.9193 
4 *162:12 *162:20 40.6057 
5 *162:20 *2285:A2 23 
6 *162:20 *475:DIODE 26.0036 
*END

*D_NET *163 0.0308295
*CONN
*I *486:DIODE I *D sky130_fd_sc_hd__diode_2
*I *2289:B I *D sky130_fd_sc_hd__and3_1
*I *2291:B I *D sky130_fd_sc_hd__xnor2_1
*I *488:DIODE I *D sky130_fd_sc_hd__diode_2
*I *2287:Y O *D sky130_fd_sc_hd__nand3_2
*CAP
1 *486:DIODE 0
2 *2289:B 0.000304219
3 *2291:B 0.000288848
4 *488:DIODE 0
5 *2287:Y 0.000197228
6 *163:60 0.000566089
7 *163:50 0.00613804
8 *163:24 0.00259745
9 *163:22 0.00268948
10 *163:14 0.00763737
11 *163:10 0.00157755
12 *2291:B *2291:A 0.000309734
13 *2291:B *182:136 0.000168687
14 *163:10 *2287:C 5.56279e-05
15 *163:14 *179:52 0.000238824
16 *163:14 *180:109 0.000842823
17 *163:14 *180:128 0.000124306
18 *163:14 *180:141 0.000216685
19 *163:14 *180:156 0.000123506
20 *163:22 *171:252 0.000110184
21 *163:22 *180:109 0.000530415
22 *163:24 *182:136 0.000614817
23 *163:50 *173:18 0.00182043
24 *163:50 *173:52 0.00142482
25 *163:50 *173:79 0.000624374
26 *163:50 *207:29 0.000301982
27 *22:8 *163:10 0.000158796
28 *30:16 *163:60 0.00017774
29 *44:10 *163:50 0.000134658
30 *85:8 *2289:B 0.000453331
31 *95:18 *163:22 0.000188926
32 *136:46 *163:60 5.10396e-05
33 *141:68 *163:50 2.24182e-05
34 *141:114 *163:50 0
35 *152:16 *163:10 0.000135037
36 *158:22 *163:50 4.02281e-06
*RES
1 *2287:Y *163:10 41.8321 
2 *163:10 *163:14 38.0136 
3 *163:14 *163:22 38.4721 
4 *163:22 *163:24 29.2071 
5 *163:24 *488:DIODE 23 
6 *163:24 *2291:B 29.5871 
7 *163:14 *163:50 45.1561 
8 *163:50 *163:60 32.0211 
9 *163:60 *2289:B 27.9093 
10 *163:60 *486:DIODE 23 
*END

*D_NET *164 0.00610033
*CONN
*I *2289:C I *D sky130_fd_sc_hd__and3_1
*I *2288:X O *D sky130_fd_sc_hd__a21o_1
*CAP
1 *2289:C 0
2 *2288:X 9.68716e-05
3 *164:22 0.000544656
4 *164:14 0.0014127
5 *164:10 0.000964912
6 *164:10 *2288:B1 1.13812e-05
7 *164:10 *181:78 0.000113235
8 *164:10 *214:10 0.000111106
9 *164:14 *263:DIODE 3.91338e-05
10 *164:14 *264:DIODE 0.00040183
11 *164:14 *2192:B 0.000100477
12 *164:14 *183:43 9.03312e-05
13 *164:14 *190:101 4.29244e-05
14 *164:22 *171:92 0
15 *164:22 *220:42 0.000144494
16 *164:22 *220:53 5.36752e-05
17 *36:14 *164:14 0.000185528
18 *51:14 *164:22 0.000600666
19 *102:8 *164:14 0.000622251
20 *135:16 *164:10 2.95423e-05
21 *151:96 *164:14 0.000534625
*RES
1 *2288:X *164:10 40.175 
2 *164:10 *164:14 36.1079 
3 *164:14 *164:22 40.8543 
4 *164:22 *2289:C 23 
*END

*D_NET *165 0.00904937
*CONN
*I *2290:A I *D sky130_fd_sc_hd__buf_1
*I *2289:X O *D sky130_fd_sc_hd__and3_1
*CAP
1 *2290:A 0
2 *2289:X 2.34823e-05
3 *165:16 0.00067413
4 *165:10 0.00203544
5 *165:6 0.00138479
6 *165:6 *220:53 0
7 *165:10 *2187:B 0.000125715
8 *165:10 *2187:D_N 9.5877e-05
9 *165:10 *2337:A 0.000269499
10 *165:10 *186:36 3.06911e-05
11 *165:10 *220:53 0.000646321
12 *165:16 *174:26 0.00106904
13 *165:16 *174:28 0.000185755
14 *2371:D *165:16 0.000223077
15 *17:22 *165:16 0.000223077
16 *30:18 *165:16 0.000225413
17 *74:10 *165:16 1.40281e-05
18 *78:10 *165:16 0.000355192
19 *85:8 *165:10 0.000126162
20 *99:6 *165:10 0.00112728
21 *105:16 *165:16 0.000214405
*RES
1 *2289:X *165:6 23.4971 
2 *165:6 *165:10 44.2071 
3 *165:10 *165:16 34.9271 
4 *165:16 *2290:A 23 
*END

*D_NET *166 0.0300694
*CONN
*I *2293:A I *D sky130_fd_sc_hd__inv_2
*I *492:DIODE I *D sky130_fd_sc_hd__diode_2
*I *2299:B1 I *D sky130_fd_sc_hd__o31ai_2
*I *507:DIODE I *D sky130_fd_sc_hd__diode_2
*I *500:DIODE I *D sky130_fd_sc_hd__diode_2
*I *2296:B1 I *D sky130_fd_sc_hd__o21ai_2
*I *2292:Y O *D sky130_fd_sc_hd__o21ai_4
*CAP
1 *2293:A 2.25618e-05
2 *492:DIODE 5.67095e-05
3 *2299:B1 0.000184549
4 *507:DIODE 0.000229901
5 *500:DIODE 0
6 *2296:B1 0
7 *2292:Y 0.000502762
8 *166:90 0.0011819
9 *166:77 0.00141298
10 *166:66 0.001575
11 *166:54 0.00313105
12 *166:38 0.000149486
13 *166:30 0.00123716
14 *166:24 0.002308
15 *166:10 0.00363485
16 *492:DIODE *201:71 1.59094e-05
17 *2293:A *203:116 5.09373e-05
18 *2299:B1 *506:DIODE 5.62351e-05
19 *2299:B1 *181:150 6.53382e-05
20 *166:10 *2292:B1 5.67058e-05
21 *166:10 *169:44 0.000358046
22 *166:10 *182:32 0
23 *166:10 *219:22 5.50106e-05
24 *166:24 *369:DIODE 9.61729e-05
25 *166:24 *186:36 2.05503e-05
26 *166:24 *188:38 0.00039552
27 *166:24 *214:36 0.000311898
28 *166:30 *188:38 0.0004438
29 *166:30 *219:8 0.000394186
30 *166:38 *201:14 0.000141975
31 *166:54 *169:44 7.11096e-05
32 *166:54 *189:24 0.000956444
33 *166:54 *206:38 0.000312459
34 *166:66 *190:44 4.1327e-05
35 *166:66 *190:153 0.000164282
36 *166:66 *191:82 0
37 *166:66 *191:90 0.000253562
38 *166:66 *196:93 0.000630146
39 *166:66 *204:76 0.000404501
40 *166:66 *204:82 0.000623279
41 *166:77 *196:93 0.000129504
42 *166:77 *196:115 8.62876e-05
43 *166:90 *196:115 0.00165371
44 *166:90 *203:116 0.000362081
45 *412:DIODE *166:30 1.84917e-05
46 *7:17 *166:24 0
47 *20:10 *166:66 0.000237325
48 *92:8 *166:66 3.53698e-05
49 *92:8 *166:90 0.000201245
50 *96:20 *166:10 0.0002034
51 *96:20 *166:54 0.000169794
52 *105:16 *166:24 0.000568355
53 *130:38 *2293:A 6.10809e-05
54 *130:38 *166:66 0.000528283
55 *130:38 *166:77 0.00021039
56 *130:38 *166:90 0.00244858
57 *132:18 *166:24 0.000834994
58 *134:65 *166:66 8.89055e-05
59 *134:95 *166:66 0.000329396
60 *144:93 *507:DIODE 0.00026025
61 *153:22 *166:66 9.56369e-05
*RES
1 *2292:Y *166:10 49.1546 
2 *166:10 *166:24 41.0935 
3 *166:24 *166:30 20.6729 
4 *166:30 *166:38 33.0036 
5 *166:38 *2296:B1 23 
6 *166:30 *500:DIODE 23 
7 *166:10 *166:54 41.4004 
8 *166:54 *166:66 47.6664 
9 *166:66 *507:DIODE 41.0036 
10 *166:66 *166:77 2.96214 
11 *166:77 *2299:B1 40.5479 
12 *166:77 *166:90 33.9507 
13 *166:90 *492:DIODE 38.6214 
14 *166:90 *2293:A 38.8493 
*END

*D_NET *167 0.0234571
*CONN
*I *499:DIODE I *D sky130_fd_sc_hd__diode_2
*I *2296:A2 I *D sky130_fd_sc_hd__o21ai_2
*I *2295:A2 I *D sky130_fd_sc_hd__a211o_1
*I *495:DIODE I *D sky130_fd_sc_hd__diode_2
*I *2294:Y O *D sky130_fd_sc_hd__inv_2
*CAP
1 *499:DIODE 4.33954e-05
2 *2296:A2 0
3 *2295:A2 0
4 *495:DIODE 0.000321185
5 *2294:Y 0.000751192
6 *167:48 0.00130932
7 *167:44 0.00134532
8 *167:38 0.000482946
9 *167:34 0.00168778
10 *167:28 0.0016054
11 *167:26 0.00100701
12 *167:18 0.0017582
13 *499:DIODE *179:146 5.56356e-05
14 *167:18 *413:DIODE 0.000136743
15 *167:18 *2257:B1 0.000205913
16 *167:18 *197:24 0.00103421
17 *167:26 *202:32 0.000111852
18 *167:26 *217:20 0.000881149
19 *167:34 *217:14 0.00120458
20 *167:34 *217:20 0.00167174
21 *167:34 *218:38 0.00111857
22 *167:44 *2296:A1 4.52991e-05
23 *167:44 *179:146 1.72872e-05
24 *167:44 *201:14 0.000274402
25 *167:48 *201:14 3.04021e-05
26 *167:48 *218:10 0
27 *414:DIODE *167:18 4.96717e-05
28 *2257:A2 *167:18 1.4345e-05
29 *7:17 *167:26 0.000154082
30 *17:22 *167:38 0.000158098
31 *17:22 *167:44 0.000116368
32 *26:18 *167:18 0.00072677
33 *35:10 *167:48 0
34 *60:12 *167:26 1.00288e-05
35 *88:18 *167:34 0.00113592
36 *98:14 *167:26 0.000261558
37 *117:14 *167:26 0.00109469
38 *122:10 *495:DIODE 2.08324e-05
39 *122:10 *167:48 0.000113614
40 *122:22 *495:DIODE 0
41 *123:12 *167:26 0.00144238
42 *142:14 *167:48 0.000440838
43 *144:93 *167:18 0.000556714
44 *147:24 *167:38 4.3053e-05
45 *147:24 *167:44 1.85903e-05
*RES
1 *2294:Y *167:18 44.4807 
2 *167:18 *167:26 44.0829 
3 *167:26 *167:28 15 
4 *167:28 *167:34 44.6186 
5 *167:34 *167:38 17.2579 
6 *167:38 *167:44 22.0636 
7 *167:44 *167:48 37.6821 
8 *167:48 *495:DIODE 42.4329 
9 *167:48 *2295:A2 38 
10 *167:44 *2296:A2 23 
11 *167:38 *499:DIODE 38.6214 
*END

*D_NET *168 0.0045815
*CONN
*I *2298:A I *D sky130_fd_sc_hd__buf_1
*I *2297:X O *D sky130_fd_sc_hd__or3_1
*CAP
1 *2298:A 0
2 *2297:X 0.000125135
3 *168:12 0.00071181
4 *168:8 0.000836945
5 *168:8 *181:133 7.17698e-05
6 *168:12 *169:34 8.41078e-05
7 *168:12 *193:10 0.00180767
8 *131:18 *168:12 0.00056746
9 *133:16 *168:12 0.000376606
*RES
1 *2297:X *168:8 39.5743 
2 *168:8 *168:12 39.4429 
3 *168:12 *2298:A 23 
*END

*D_NET *169 0.0584603
*CONN
*I *2338:A I *D sky130_fd_sc_hd__inv_2
*I *545:DIODE I *D sky130_fd_sc_hd__diode_2
*I *2334:A I *D sky130_fd_sc_hd__inv_2
*I *541:DIODE I *D sky130_fd_sc_hd__diode_2
*I *2335:A I *D sky130_fd_sc_hd__inv_2
*I *542:DIODE I *D sky130_fd_sc_hd__diode_2
*I *519:DIODE I *D sky130_fd_sc_hd__diode_2
*I *2312:A I *D sky130_fd_sc_hd__clkbuf_8
*I *547:DIODE I *D sky130_fd_sc_hd__diode_2
*I *2340:A I *D sky130_fd_sc_hd__inv_2
*I *2336:A I *D sky130_fd_sc_hd__inv_2
*I *543:DIODE I *D sky130_fd_sc_hd__diode_2
*I *530:DIODE I *D sky130_fd_sc_hd__diode_2
*I *2301:A I *D sky130_fd_sc_hd__clkbuf_8
*I *508:DIODE I *D sky130_fd_sc_hd__diode_2
*I *2323:A I *D sky130_fd_sc_hd__buf_4
*I *546:DIODE I *D sky130_fd_sc_hd__diode_2
*I *2339:A I *D sky130_fd_sc_hd__inv_2
*I *544:DIODE I *D sky130_fd_sc_hd__diode_2
*I *2337:A I *D sky130_fd_sc_hd__inv_2
*I *2300:X O *D sky130_fd_sc_hd__clkbuf_8
*CAP
1 *2338:A 0.000142732
2 *545:DIODE 0
3 *2334:A 1.49804e-05
4 *541:DIODE 0
5 *2335:A 0.000163881
6 *542:DIODE 0
7 *519:DIODE 0
8 *2312:A 0
9 *547:DIODE 0
10 *2340:A 0.000127077
11 *2336:A 2.94372e-05
12 *543:DIODE 0
13 *530:DIODE 0.000113003
14 *2301:A 9.08596e-05
15 *508:DIODE 0
16 *2323:A 2.13128e-05
17 *546:DIODE 0
18 *2339:A 9.80235e-05
19 *544:DIODE 0
20 *2337:A 0.000138573
21 *2300:X 4.28066e-05
22 *169:254 0.000516804
23 *169:241 0.000569235
24 *169:228 0.00106658
25 *169:206 0.000653068
26 *169:202 0.00206224
27 *169:176 0.000959953
28 *169:160 0.000862505
29 *169:158 0.00163098
30 *169:131 6.81379e-05
31 *169:125 0.000838623
32 *169:108 0.000859796
33 *169:102 0.000829438
34 *169:100 0.00235977
35 *169:94 0.00248311
36 *169:75 0.0015361
37 *169:44 0.00112633
38 *169:42 0.00108578
39 *169:40 0.00155918
40 *169:34 0.00299859
41 *169:32 0.00152103
42 *169:24 0.00111874
43 *169:22 0.00133515
44 *169:8 0.0018031
45 *2301:A *219:26 3.71369e-05
46 *2337:A *198:20 0
47 *2339:A *209:140 5.79427e-05
48 *169:22 *180:109 0.000596296
49 *169:22 *213:116 0.000428721
50 *169:24 *171:8 0.000341684
51 *169:24 *180:109 1.24376e-05
52 *169:24 *180:113 0.000114683
53 *169:32 *2221:B1 7.7588e-05
54 *169:32 *171:8 9.67842e-05
55 *169:32 *171:14 1.60583e-05
56 *169:32 *193:10 1.69668e-05
57 *169:32 *193:48 0.000844978
58 *169:32 *214:66 0.00183546
59 *169:34 *171:14 0.00116988
60 *169:34 *179:170 1.69668e-05
61 *169:40 *381:DIODE 9.5877e-05
62 *169:40 *2242:B 0.000137651
63 *169:40 *213:50 0.000899517
64 *169:44 *182:32 0
65 *169:44 *189:30 0.000232361
66 *169:44 *198:20 0
67 *169:44 *209:140 0.000165947
68 *169:94 *190:44 7.97587e-05
69 *169:94 *191:90 1.01436e-05
70 *169:94 *212:63 0.000298503
71 *169:102 *180:20 2.71586e-05
72 *169:102 *180:40 2.64527e-05
73 *169:108 *180:20 2.40128e-05
74 *169:125 *175:140 6.94223e-05
75 *169:125 *179:8 0.00014291
76 *169:125 *198:8 8.50457e-05
77 *169:125 *203:44 8.1641e-05
78 *169:125 *219:26 0.000160498
79 *169:131 *170:12 0
80 *169:131 *179:80 4.08537e-05
81 *169:158 *182:10 4.21494e-05
82 *169:158 *183:150 0
83 *169:158 *196:70 0
84 *169:158 *204:57 2.35118e-06
85 *169:176 *201:22 0.000272196
86 *169:202 *181:10 0
87 *169:202 *209:86 0.000112294
88 *169:202 *213:116 0.000448495
89 *169:202 *213:118 0.000172554
90 *169:228 *2308:A 0.000100488
91 *169:228 *170:155 0.000187129
92 *169:228 *171:198 2.81406e-06
93 *169:228 *181:10 0
94 *169:228 *213:118 8.2828e-05
95 *169:241 *170:155 0.00010018
96 *169:241 *178:97 0
97 *169:254 *178:97 0
98 *299:DIODE *169:40 6.17437e-06
99 *2185:C *169:254 4.42688e-05
100 *2364:RESET_B *530:DIODE 7.59161e-05
101 *2364:RESET_B *2323:A 5.47983e-06
102 *2364:RESET_B *169:108 0.000396976
103 *2364:RESET_B *169:125 2.93335e-05
104 *2375:RESET_B *2338:A 9.84851e-05
105 *28:28 *169:22 0
106 *28:28 *169:202 0
107 *29:10 *169:22 0
108 *41:20 *169:108 0.000445578
109 *41:20 *169:125 4.21048e-05
110 *48:8 *169:40 0.00010376
111 *48:10 *2339:A 0.000178517
112 *48:10 *169:40 9.02427e-05
113 *49:14 *2338:A 5.14746e-06
114 *53:12 *169:102 0.00102662
115 *53:12 *169:108 9.00319e-05
116 *53:12 *169:158 0.000360706
117 *58:12 *2334:A 5.50106e-05
118 *73:18 *2339:A 0.000178517
119 *73:18 *169:40 0.000268754
120 *73:18 *169:75 9.5877e-05
121 *73:18 *169:94 0.00175869
122 *82:12 *169:241 1.01436e-05
123 *83:6 *2335:A 0.000228001
124 *83:6 *169:206 0.000388377
125 *84:6 *2336:A 0.00013024
126 *84:6 *169:160 0.001547
127 *85:8 *2337:A 0.000119477
128 *88:6 *2340:A 0.000188934
129 *88:6 *169:176 2.54749e-05
130 *88:12 *169:40 0.000217473
131 *96:20 *169:44 0.000126154
132 *96:46 *169:241 3.3746e-05
133 *96:46 *169:254 0.000163904
134 *104:22 *2334:A 5.50106e-05
135 *106:134 *169:228 0.000532067
136 *106:178 *169:32 8.48189e-05
137 *113:32 *169:40 0.000779768
138 *118:20 *2335:A 2.02517e-05
139 *118:24 *2335:A 2.4754e-05
140 *124:16 *169:94 0.000175903
141 *125:14 *169:22 0.000128858
142 *131:18 *169:34 8.62876e-05
143 *131:18 *169:40 0.000320408
144 *131:44 *169:22 4.36242e-05
145 *133:16 *169:32 1.14452e-05
146 *133:16 *169:34 0.00060425
147 *134:8 *169:34 0.00014377
148 *134:8 *169:40 4.82202e-05
149 *134:65 *169:100 2.92911e-06
150 *134:75 *169:100 0.000822864
151 *134:95 *169:94 4.59507e-05
152 *134:218 *169:34 2.96051e-05
153 *138:12 *169:158 5.08422e-06
154 *154:10 *169:102 0.000462686
155 *154:10 *169:158 0.00141265
156 *161:22 *2336:A 0.00014384
157 *161:22 *169:160 0.00179815
158 *162:8 *2337:A 4.4382e-05
159 *162:8 *2339:A 2.27474e-05
160 *162:8 *169:44 0.000700331
161 *165:10 *2337:A 0.000269499
162 *166:10 *169:44 0.000358046
163 *166:54 *169:44 7.11096e-05
164 *168:12 *169:34 8.41078e-05
*RES
1 *2300:X *169:8 38.6214 
2 *169:8 *169:22 36.315 
3 *169:22 *169:24 6.33857 
4 *169:24 *169:32 42.7468 
5 *169:32 *169:34 21.4496 
6 *169:34 *169:40 47.625 
7 *169:40 *169:42 15 
8 *169:42 *169:44 24.0907 
9 *169:44 *2337:A 42.205 
10 *169:44 *544:DIODE 38 
11 *169:42 *2339:A 40.9 
12 *169:40 *169:75 1.09786 
13 *169:75 *546:DIODE 23 
14 *169:75 *169:94 41.1 
15 *169:94 *169:100 42.5321 
16 *169:100 *169:102 14.2307 
17 *169:102 *169:108 21.1107 
18 *169:108 *2323:A 23.4971 
19 *169:108 *169:125 41.1029 
20 *169:125 *169:131 31.2014 
21 *169:131 *508:DIODE 23 
22 *169:125 *2301:A 24.595 
23 *169:102 *530:DIODE 39.5743 
24 *169:100 *169:158 34.1607 
25 *169:158 *169:160 24.9193 
26 *169:160 *543:DIODE 23 
27 *169:160 *2336:A 24.5743 
28 *169:34 *169:176 25.6264 
29 *169:176 *2340:A 26.2521 
30 *169:176 *547:DIODE 23 
31 *169:24 *2312:A 23 
32 *169:22 *519:DIODE 23 
33 *169:8 *169:202 13.5264 
34 *169:202 *169:206 22.7679 
35 *169:206 *542:DIODE 23 
36 *169:206 *2335:A 26.9979 
37 *169:202 *169:228 29.065 
38 *169:228 *541:DIODE 23 
39 *169:228 *169:241 17.9207 
40 *169:241 *2334:A 38.6214 
41 *169:241 *169:254 22.54 
42 *169:254 *545:DIODE 23 
43 *169:254 *2338:A 25.4236 
*END

*D_NET *170 0.0509962
*CONN
*I *2307:A I *D sky130_fd_sc_hd__inv_2
*I *514:DIODE I *D sky130_fd_sc_hd__diode_2
*I *2302:A I *D sky130_fd_sc_hd__inv_2
*I *513:DIODE I *D sky130_fd_sc_hd__diode_2
*I *2306:A I *D sky130_fd_sc_hd__inv_2
*I *2310:A I *D sky130_fd_sc_hd__inv_2
*I *517:DIODE I *D sky130_fd_sc_hd__diode_2
*I *2308:A I *D sky130_fd_sc_hd__inv_2
*I *515:DIODE I *D sky130_fd_sc_hd__diode_2
*I *516:DIODE I *D sky130_fd_sc_hd__diode_2
*I *2309:A I *D sky130_fd_sc_hd__inv_2
*I *509:DIODE I *D sky130_fd_sc_hd__diode_2
*I *511:DIODE I *D sky130_fd_sc_hd__diode_2
*I *2304:A I *D sky130_fd_sc_hd__inv_2
*I *518:DIODE I *D sky130_fd_sc_hd__diode_2
*I *2311:A I *D sky130_fd_sc_hd__inv_2
*I *512:DIODE I *D sky130_fd_sc_hd__diode_2
*I *2305:A I *D sky130_fd_sc_hd__inv_2
*I *510:DIODE I *D sky130_fd_sc_hd__diode_2
*I *2303:A I *D sky130_fd_sc_hd__inv_2
*I *2301:X O *D sky130_fd_sc_hd__clkbuf_8
*CAP
1 *2307:A 0.000154114
2 *514:DIODE 0
3 *2302:A 0
4 *513:DIODE 8.48033e-05
5 *2306:A 0
6 *2310:A 6.82857e-05
7 *517:DIODE 0
8 *2308:A 0.000103888
9 *515:DIODE 0
10 *516:DIODE 0
11 *2309:A 0.000117671
12 *509:DIODE 0
13 *511:DIODE 0.00017556
14 *2304:A 0
15 *518:DIODE 4.83967e-05
16 *2311:A 0
17 *512:DIODE 0
18 *2305:A 0.000101726
19 *510:DIODE 0
20 *2303:A 0.000168895
21 *2301:X 9.08871e-05
22 *170:208 0.000783851
23 *170:189 0.000130099
24 *170:173 0.000464099
25 *170:155 0.000415677
26 *170:151 0.00111191
27 *170:135 0.00146403
28 *170:129 0.00175067
29 *170:127 0.00231576
30 *170:121 0.0026384
31 *170:113 0.000409684
32 *170:100 0.000725169
33 *170:96 0.00139952
34 *170:92 0.00212868
35 *170:76 0.000539641
36 *170:44 0.00174488
37 *170:42 0.00176594
38 *170:36 0.000287997
39 *170:34 0.00140472
40 *170:14 0.00101225
41 *170:12 0.00188571
42 *170:8 0.00216114
43 *2303:A *175:84 8.69811e-05
44 *2307:A *215:20 2.20636e-05
45 *2308:A *171:198 2.4754e-05
46 *170:8 *219:26 0.000182832
47 *170:12 *179:80 0
48 *170:14 *175:84 0.000273267
49 *170:34 *211:14 0
50 *170:92 *185:28 0.000526563
51 *170:113 *2230:C 0.000221997
52 *170:121 *177:170 0.000592873
53 *170:127 *241:DIODE 0.000212401
54 *170:127 *2183:C 2.83509e-05
55 *170:127 *176:65 0.00021677
56 *170:127 *176:123 0.000316846
57 *170:127 *205:70 2.83509e-05
58 *170:127 *205:90 4.42603e-05
59 *170:127 *206:88 9.09483e-05
60 *170:127 *206:103 8.3967e-05
61 *170:127 *207:14 0.000179725
62 *170:135 *171:226 0.000162263
63 *170:151 *171:226 0.000976493
64 *170:173 *171:226 4.92689e-05
65 *599:DIODE *170:34 0
66 *599:DIODE *170:36 0
67 *599:DIODE *170:42 0
68 *2369:RESET_B *170:76 0.000100782
69 *28:12 *170:34 0
70 *28:20 *170:92 0.000904408
71 *34:12 *2305:A 0.000274078
72 *34:12 *170:44 0.00342532
73 *35:43 *170:92 5.1098e-05
74 *40:18 *170:34 2.33476e-05
75 *41:24 *170:92 0
76 *49:14 *2310:A 2.30292e-05
77 *53:8 *2303:A 0.000141675
78 *54:6 *170:76 0.000528923
79 *56:10 *170:127 0.00035305
80 *57:6 *2307:A 0.000146197
81 *57:6 *170:96 0.000221997
82 *57:6 *170:208 0.000811488
83 *58:12 *2308:A 0.000228001
84 *58:12 *170:155 1.22822e-05
85 *59:10 *2309:A 0.000106277
86 *59:10 *170:135 0.000328998
87 *60:8 *170:151 0.000176061
88 *60:8 *170:173 0.000297478
89 *61:10 *170:44 9.36522e-05
90 *65:6 *170:155 0.000184402
91 *67:26 *170:100 0.00018589
92 *77:10 *170:92 0.00308339
93 *82:8 *170:155 5.3304e-05
94 *104:22 *170:155 0.000918596
95 *109:22 *170:92 0.000703601
96 *109:22 *170:100 0.000735616
97 *109:22 *170:113 3.47776e-05
98 *109:28 *170:12 5.3656e-05
99 *109:28 *170:34 0.000621028
100 *109:28 *170:92 0.00024187
101 *110:10 *170:92 0
102 *110:10 *170:121 0.000594963
103 *119:115 *170:113 0.000310867
104 *119:115 *170:121 5.3304e-05
105 *119:119 *170:100 0.000101708
106 *119:119 *170:113 8.62783e-05
107 *119:133 *170:100 0.00123151
108 *125:12 *170:135 0.000160125
109 *125:12 *170:151 0.000623966
110 *126:10 *170:34 0.000278753
111 *126:40 *170:100 5.94125e-05
112 *128:10 *170:113 3.88133e-05
113 *128:10 *170:121 2.93747e-05
114 *136:50 *170:34 0
115 *169:131 *170:12 0
116 *169:228 *2308:A 0.000100488
117 *169:228 *170:155 0.000187129
118 *169:241 *170:155 0.00010018
*RES
1 *2301:X *170:8 40.0507 
2 *170:8 *170:12 17.2579 
3 *170:12 *170:14 13.9614 
4 *170:14 *2303:A 26.9771 
5 *170:14 *510:DIODE 23 
6 *170:12 *170:34 34.8029 
7 *170:34 *170:36 1.90571 
8 *170:36 *170:42 17.2993 
9 *170:42 *170:44 43.9764 
10 *170:44 *2305:A 26.0036 
11 *170:44 *512:DIODE 23 
12 *170:42 *2311:A 23 
13 *170:36 *518:DIODE 38.6214 
14 *170:34 *170:76 26.1236 
15 *170:76 *2304:A 23 
16 *170:76 *511:DIODE 25.4236 
17 *170:8 *170:92 55.7836 
18 *170:92 *170:96 17.5271 
19 *170:96 *170:100 34.865 
20 *170:100 *509:DIODE 38 
21 *170:100 *170:113 19.6814 
22 *170:113 *170:121 38.8657 
23 *170:121 *170:127 43.6657 
24 *170:127 *170:129 15 
25 *170:129 *170:135 33.6014 
26 *170:135 *2309:A 25.9 
27 *170:135 *516:DIODE 23 
28 *170:129 *170:151 13.5264 
29 *170:151 *170:155 25.6264 
30 *170:155 *515:DIODE 23 
31 *170:155 *2308:A 26.8529 
32 *170:151 *170:173 23.2443 
33 *170:173 *517:DIODE 23 
34 *170:173 *2310:A 24.4707 
35 *170:121 *170:189 0.621429 
36 *170:189 *2306:A 23 
37 *170:189 *513:DIODE 24.5743 
38 *170:113 *2302:A 23 
39 *170:96 *170:208 9.19714 
40 *170:208 *514:DIODE 23 
41 *170:208 *2307:A 25.9 
*END

*D_NET *171 0.0705039
*CONN
*I *527:DIODE I *D sky130_fd_sc_hd__diode_2
*I *2320:A I *D sky130_fd_sc_hd__inv_2
*I *520:DIODE I *D sky130_fd_sc_hd__diode_2
*I *2313:A I *D sky130_fd_sc_hd__inv_2
*I *2316:A I *D sky130_fd_sc_hd__inv_2
*I *523:DIODE I *D sky130_fd_sc_hd__diode_2
*I *2318:A I *D sky130_fd_sc_hd__inv_2
*I *525:DIODE I *D sky130_fd_sc_hd__diode_2
*I *522:DIODE I *D sky130_fd_sc_hd__diode_2
*I *2315:A I *D sky130_fd_sc_hd__inv_2
*I *529:DIODE I *D sky130_fd_sc_hd__diode_2
*I *524:DIODE I *D sky130_fd_sc_hd__diode_2
*I *2317:A I *D sky130_fd_sc_hd__inv_2
*I *2322:A I *D sky130_fd_sc_hd__inv_2
*I *2321:A I *D sky130_fd_sc_hd__inv_2
*I *528:DIODE I *D sky130_fd_sc_hd__diode_2
*I *2314:A I *D sky130_fd_sc_hd__inv_2
*I *521:DIODE I *D sky130_fd_sc_hd__diode_2
*I *2319:A I *D sky130_fd_sc_hd__inv_2
*I *526:DIODE I *D sky130_fd_sc_hd__diode_2
*I *2312:X O *D sky130_fd_sc_hd__clkbuf_8
*CAP
1 *527:DIODE 0
2 *2320:A 0
3 *520:DIODE 9.15002e-05
4 *2313:A 0
5 *2316:A 0
6 *523:DIODE 0
7 *2318:A 0
8 *525:DIODE 3.73958e-05
9 *522:DIODE 5.97751e-05
10 *2315:A 0
11 *529:DIODE 0.000280644
12 *524:DIODE 0
13 *2317:A 9.05743e-05
14 *2322:A 0
15 *2321:A 0
16 *528:DIODE 2.23475e-05
17 *2314:A 3.51459e-05
18 *521:DIODE 0
19 *2319:A 5.67488e-05
20 *526:DIODE 6.09728e-05
21 *2312:X 0.000155763
22 *171:252 0.000782388
23 *171:238 0.000796464
24 *171:230 0.000474442
25 *171:226 0.00118738
26 *171:211 0.000952383
27 *171:198 0.00222876
28 *171:180 0.00041585
29 *171:170 0.00331631
30 *171:135 0.000696163
31 *171:120 0.000793415
32 *171:116 0.00122485
33 *171:108 0.00126069
34 *171:92 0.00122513
35 *171:86 0.00283071
36 *171:82 0.00256746
37 *171:66 0.00159413
38 *171:62 0.00162766
39 *171:41 0.0016069
40 *171:34 0.00148676
41 *171:16 0.000521262
42 *171:14 0.00119578
43 *171:10 0.00245877
44 *171:8 0.00121311
45 *520:DIODE *180:109 0.000135037
46 *522:DIODE *203:78 0.000225282
47 *528:DIODE *179:104 0.000147656
48 *528:DIODE *194:73 8.26478e-05
49 *171:8 *180:113 0.000520201
50 *171:10 *186:60 0.000686029
51 *171:10 *214:66 0.000692969
52 *171:14 *2221:B1 8.02832e-05
53 *171:14 *179:170 3.3746e-05
54 *171:14 *179:190 4.26793e-05
55 *171:14 *186:60 0.00181088
56 *171:14 *187:30 0.000115013
57 *171:14 *187:66 0.000316517
58 *171:14 *214:66 0.00111752
59 *171:16 *179:168 0.000132374
60 *171:62 *234:DIODE 0.000137533
61 *171:62 *2181:B 0.000140731
62 *171:62 *2202:A 0.00029549
63 *171:62 *200:48 0.000139052
64 *171:62 *202:18 0.00019672
65 *171:62 *202:86 0.000205999
66 *171:62 *209:43 0.000195791
67 *171:66 *203:78 0.00021677
68 *171:82 *202:24 0.000160205
69 *171:82 *212:12 0.00034135
70 *171:92 *179:104 0.000893364
71 *171:92 *194:73 0.000117447
72 *171:92 *199:142 0.000269151
73 *171:92 *205:28 0.000673594
74 *171:108 *198:12 0.00179774
75 *171:108 *219:26 0.00144912
76 *171:116 *178:10 4.41821e-06
77 *171:116 *178:16 0.000142111
78 *171:135 *203:44 0
79 *171:170 *354:DIODE 8.62876e-05
80 *171:170 *384:DIODE 0
81 *171:170 *186:60 0.001771
82 *171:170 *213:130 0
83 *171:170 *214:66 0.000687744
84 *171:170 *214:68 0.000576305
85 *171:170 *214:87 8.00365e-05
86 *171:180 *384:DIODE 0.000185434
87 *171:180 *213:122 0.000389569
88 *171:180 *213:130 5.50106e-05
89 *171:198 *213:122 0.00161373
90 *171:198 *214:87 2.76611e-06
91 *171:198 *214:98 1.34354e-05
92 *171:252 *180:109 0.000322276
93 *2308:A *171:198 2.4754e-05
94 *2372:RESET_B *171:230 0.000428986
95 *2372:RESET_B *171:238 0.000186606
96 *2373:RESET_B *171:135 0.000137629
97 *2374:RESET_B *171:116 4.88741e-05
98 *16:8 *171:116 0.000142111
99 *21:24 *171:82 0.000338744
100 *21:24 *171:92 0.000123161
101 *30:8 *171:120 6.17437e-06
102 *30:8 *171:135 9.06073e-05
103 *30:16 *171:135 0
104 *34:8 *171:135 0.000977685
105 *35:30 *171:116 5.40357e-05
106 *35:30 *171:120 0.000529061
107 *35:30 *171:135 0.00014384
108 *35:43 *171:135 4.21921e-05
109 *40:18 *171:92 0.000100139
110 *51:14 *171:86 0
111 *51:14 *171:92 0
112 *55:20 *522:DIODE 0.000212844
113 *55:20 *171:66 0.000218471
114 *58:12 *171:198 0.000856193
115 *58:12 *171:211 1.72202e-05
116 *58:14 *171:211 5.50049e-05
117 *58:14 *171:226 0.000185648
118 *66:22 *171:135 0.000119802
119 *67:8 *171:180 5.35578e-05
120 *68:8 *171:16 1.95556e-05
121 *69:6 *171:238 0.000146822
122 *71:10 *529:DIODE 0.000266312
123 *71:10 *171:120 0.000398075
124 *94:18 *171:238 2.38097e-05
125 *94:18 *171:252 0
126 *94:24 *171:86 0.00165724
127 *94:24 *171:92 0.000599959
128 *95:18 *171:238 0
129 *95:18 *171:252 0.000264346
130 *95:20 *171:86 0
131 *96:46 *171:211 0
132 *97:24 *171:226 0.000124352
133 *104:22 *171:226 0.000187343
134 *106:134 *171:180 0.000213821
135 *106:134 *171:198 0.000107713
136 *117:14 *171:62 0.000549613
137 *117:26 *171:82 7.51431e-06
138 *118:26 *171:62 0.000145728
139 *118:26 *171:226 0.00131201
140 *125:12 *171:226 0.000275692
141 *126:14 *2317:A 3.71369e-05
142 *126:14 *171:135 4.37586e-06
143 *133:16 *171:82 3.91207e-05
144 *134:218 *171:16 1.40958e-05
145 *138:26 *171:82 0.00153853
146 *143:14 *171:108 0.000188791
147 *143:24 *171:116 0.00010919
148 *143:28 *171:116 5.61255e-06
149 *144:37 *171:62 0.000141354
150 *152:36 *2314:A 3.7681e-05
151 *152:36 *171:34 0.000602889
152 *152:36 *171:41 1.92253e-05
153 *152:36 *171:62 0.000794756
154 *153:55 *526:DIODE 3.82058e-06
155 *153:55 *171:16 2.03764e-06
156 *163:22 *171:252 0.000110184
157 *164:22 *171:92 0
158 *169:24 *171:8 0.000341684
159 *169:32 *171:8 9.67842e-05
160 *169:32 *171:14 1.60583e-05
161 *169:34 *171:14 0.00116988
162 *169:228 *171:198 2.81406e-06
163 *170:135 *171:226 0.000162263
164 *170:151 *171:226 0.000976493
165 *170:173 *171:226 4.92689e-05
*RES
1 *2312:X *171:8 43.8621 
2 *171:8 *171:10 9.30071 
3 *171:10 *171:14 47.19 
4 *171:14 *171:16 4.90929 
5 *171:16 *526:DIODE 23.6214 
6 *171:16 *2319:A 24.2014 
7 *171:10 *171:34 34.6786 
8 *171:34 *521:DIODE 23 
9 *171:34 *171:41 0.621429 
10 *171:41 *2314:A 23.8493 
11 *171:41 *171:62 45.8021 
12 *171:62 *171:66 17.5271 
13 *171:66 *171:82 47.8787 
14 *171:82 *171:86 31.2104 
15 *171:86 *171:92 44.8907 
16 *171:92 *528:DIODE 24.5743 
17 *171:92 *2321:A 23 
18 *171:86 *171:108 35.155 
19 *171:108 *171:116 41.1857 
20 *171:116 *171:120 6.71143 
21 *171:120 *2322:A 23 
22 *171:120 *171:135 45.8464 
23 *171:135 *2317:A 24.9471 
24 *171:135 *524:DIODE 23 
25 *171:116 *529:DIODE 26.9564 
26 *171:66 *2315:A 23 
27 *171:66 *522:DIODE 25.5271 
28 *171:8 *171:170 28.6686 
29 *171:170 *171:180 26.2893 
30 *171:180 *525:DIODE 23.6214 
31 *171:180 *2318:A 23 
32 *171:170 *171:198 48.8679 
33 *171:198 *523:DIODE 23 
34 *171:198 *171:211 31.9471 
35 *171:211 *2316:A 23 
36 *171:211 *171:226 39.795 
37 *171:226 *171:230 19.9093 
38 *171:230 *171:238 32.9 
39 *171:238 *171:252 43.5057 
40 *171:252 *2313:A 23 
41 *171:252 *520:DIODE 24.5743 
42 *171:238 *2320:A 23 
43 *171:230 *527:DIODE 23 
*END

*D_NET *172 0.0486562
*CONN
*I *539:DIODE I *D sky130_fd_sc_hd__diode_2
*I *2332:A I *D sky130_fd_sc_hd__inv_2
*I *538:DIODE I *D sky130_fd_sc_hd__diode_2
*I *2331:A I *D sky130_fd_sc_hd__inv_2
*I *531:DIODE I *D sky130_fd_sc_hd__diode_2
*I *2324:A I *D sky130_fd_sc_hd__inv_2
*I *540:DIODE I *D sky130_fd_sc_hd__diode_2
*I *2333:A I *D sky130_fd_sc_hd__inv_2
*I *2328:A I *D sky130_fd_sc_hd__inv_2
*I *535:DIODE I *D sky130_fd_sc_hd__diode_2
*I *534:DIODE I *D sky130_fd_sc_hd__diode_2
*I *533:DIODE I *D sky130_fd_sc_hd__diode_2
*I *2326:A I *D sky130_fd_sc_hd__inv_2
*I *2327:A I *D sky130_fd_sc_hd__inv_2
*I *532:DIODE I *D sky130_fd_sc_hd__diode_2
*I *2325:A I *D sky130_fd_sc_hd__inv_2
*I *537:DIODE I *D sky130_fd_sc_hd__diode_2
*I *2330:A I *D sky130_fd_sc_hd__inv_2
*I *2329:A I *D sky130_fd_sc_hd__inv_2
*I *536:DIODE I *D sky130_fd_sc_hd__diode_2
*I *2323:X O *D sky130_fd_sc_hd__buf_4
*CAP
1 *539:DIODE 0
2 *2332:A 0.000184218
3 *538:DIODE 0.000196224
4 *2331:A 2.32701e-05
5 *531:DIODE 0
6 *2324:A 5.06888e-05
7 *540:DIODE 0.00018472
8 *2333:A 0
9 *2328:A 0.000172977
10 *535:DIODE 0
11 *534:DIODE 0
12 *533:DIODE 0
13 *2326:A 0.000251417
14 *2327:A 3.40373e-05
15 *532:DIODE 0
16 *2325:A 0.00014909
17 *537:DIODE 0
18 *2330:A 0.000118751
19 *2329:A 0.000126316
20 *536:DIODE 4.99221e-05
21 *2323:X 0.000385546
22 *172:214 0.000430961
23 *172:208 0.00044479
24 *172:206 0.000548244
25 *172:188 0.00141682
26 *172:184 0.00192727
27 *172:178 0.0015691
28 *172:162 0.000211493
29 *172:160 0.000601669
30 *172:158 0.0012743
31 *172:133 0.000373676
32 *172:98 0.000712275
33 *172:96 0.000663878
34 *172:94 0.00029561
35 *172:90 0.000502476
36 *172:88 0.0023125
37 *172:64 0.000346538
38 *172:62 0.00112818
39 *172:58 0.00247684
40 *172:50 0.00255774
41 *172:46 0.000664079
42 *172:38 0.00270279
43 *172:21 0.00243673
44 *172:10 0.00055252
45 *536:DIODE *189:20 5.3304e-05
46 *540:DIODE *176:129 0.00012016
47 *2324:A *178:93 0.000136738
48 *2329:A *218:52 2.26406e-05
49 *2330:A *185:84 6.16531e-05
50 *2330:A *202:44 0.000190889
51 *2331:A *200:48 5.3304e-05
52 *172:10 *180:40 2.17368e-05
53 *172:21 *218:52 5.82989e-06
54 *172:38 *190:34 9.68428e-05
55 *172:38 *190:138 1.94812e-05
56 *172:38 *190:153 3.16665e-05
57 *172:38 *217:32 0.000307917
58 *172:46 *175:33 0.000284887
59 *172:58 *174:156 3.65917e-05
60 *172:58 *174:165 0.000429897
61 *172:58 *201:65 0.00035517
62 *172:62 *441:DIODE 0.000188301
63 *172:62 *186:22 0.000402335
64 *172:62 *188:18 0.000137651
65 *172:62 *201:65 0.000355014
66 *172:64 *185:84 0.000374684
67 *172:88 *181:10 0.000315519
68 *172:88 *181:12 0.000925963
69 *172:88 *181:20 0.000116366
70 *172:88 *185:84 0.00168174
71 *172:158 *184:54 0
72 *172:158 *209:39 0.000753413
73 *172:158 *209:57 0.000173483
74 *172:188 *176:129 7.00439e-06
75 *172:214 *178:93 2.81138e-05
76 *438:DIODE *172:21 0
77 *565:DIODE *172:188 0.000112087
78 *2217:A *172:214 0.000384544
79 *2351:RESET_B *172:188 9.88574e-06
80 *2352:RESET_B *172:206 9.28183e-05
81 *2364:RESET_B *172:10 5.50049e-05
82 *2376:RESET_B *172:46 0.000170784
83 *2376:RESET_B *172:50 9.94766e-05
84 *21:24 *172:206 0.000102395
85 *21:24 *172:208 7.59949e-05
86 *21:24 *172:214 0.000604456
87 *21:36 *172:188 0.000135364
88 *27:14 *172:58 9.05171e-05
89 *37:12 *538:DIODE 0.000274234
90 *51:12 *172:58 0
91 *59:10 *172:188 0.000269432
92 *70:16 *172:62 1.56762e-05
93 *71:10 *172:10 6.16484e-05
94 *73:8 *2325:A 6.07935e-05
95 *73:8 *2327:A 6.59188e-05
96 *73:8 *172:96 1.41129e-05
97 *73:8 *172:98 0.000425029
98 *73:12 *172:90 0.00016711
99 *73:12 *172:94 0.000168687
100 *73:12 *172:96 5.50106e-05
101 *73:12 *172:158 0.000263915
102 *74:8 *2326:A 0.000223687
103 *75:10 *172:94 9.41704e-05
104 *75:10 *172:96 5.3304e-05
105 *76:6 *2328:A 0.000128106
106 *76:6 *172:162 9.03364e-06
107 *76:6 *172:178 0.000191726
108 *76:6 *172:206 3.75094e-05
109 *80:14 *172:46 7.3974e-05
110 *80:18 *172:10 0.000659949
111 *80:18 *172:21 0.000169563
112 *80:18 *172:38 0.000795308
113 *81:6 *540:DIODE 0.00019046
114 *82:16 *172:178 0.000234196
115 *90:20 *172:88 0.000118223
116 *93:10 *172:184 0.000354017
117 *94:18 *172:206 0.000111648
118 *94:18 *172:208 8.22445e-05
119 *94:18 *172:214 0.000602357
120 *95:12 *172:188 0.000238463
121 *95:20 *172:58 4.49946e-05
122 *96:12 *2330:A 9.46594e-05
123 *99:29 *172:58 9.41704e-05
124 *100:75 *2326:A 1.41077e-05
125 *106:38 *172:178 0.00093924
126 *106:38 *172:206 8.29713e-05
127 *106:51 *172:206 0.000301116
128 *106:62 *2331:A 5.3304e-05
129 *115:12 *172:133 0.000349386
130 *116:72 *172:133 0.000349386
131 *118:26 *172:184 0.000462074
132 *120:16 *2330:A 6.16531e-05
133 *120:16 *172:64 0.00031931
134 *131:44 *172:64 2.81216e-05
135 *131:44 *172:88 0.000158685
136 *144:37 *172:184 0.000232314
137 *146:20 *2332:A 0.000281665
138 *146:20 *172:58 0.000183085
139 *148:14 *2324:A 0.000136738
140 *148:14 *172:214 0.000415593
141 *151:61 *172:38 0.000144812
142 *151:69 *172:38 0
143 *154:10 *172:38 0
*RES
1 *2323:X *172:10 47.57 
2 *172:10 *536:DIODE 38.6214 
3 *172:10 *172:21 2.43393 
4 *172:21 *2329:A 39.4189 
5 *172:21 *172:38 48.9611 
6 *172:38 *172:46 37.975 
7 *172:46 *172:50 17.0507 
8 *172:50 *172:58 43.9586 
9 *172:58 *172:62 22.7679 
10 *172:62 *172:64 5.42714 
11 *172:64 *2330:A 41.3971 
12 *172:64 *537:DIODE 38 
13 *172:62 *172:88 38.0343 
14 *172:88 *172:90 5.38571 
15 *172:90 *172:94 2.9 
16 *172:94 *172:96 1.57429 
17 *172:96 *172:98 9.67357 
18 *172:98 *2325:A 26.77 
19 *172:98 *532:DIODE 23 
20 *172:96 *2327:A 24.2636 
21 *172:94 *172:133 34.7229 
22 *172:133 *2326:A 26.8529 
23 *172:133 *533:DIODE 23 
24 *172:90 *534:DIODE 23 
25 *172:88 *172:158 36.5429 
26 *172:158 *172:160 15 
27 *172:160 *172:162 0.621429 
28 *172:162 *535:DIODE 23 
29 *172:162 *2328:A 26.8529 
30 *172:160 *172:178 13.9614 
31 *172:178 *172:184 46.6957 
32 *172:184 *172:188 16.5921 
33 *172:188 *2333:A 23 
34 *172:188 *540:DIODE 27.4329 
35 *172:178 *172:206 21.9393 
36 *172:206 *172:208 1.20143 
37 *172:208 *172:214 28.1536 
38 *172:214 *2324:A 24.5743 
39 *172:214 *531:DIODE 23 
40 *172:208 *2331:A 38.6214 
41 *172:206 *538:DIODE 41.0036 
42 *172:50 *2332:A 42.0186 
43 *172:46 *539:DIODE 23 
*END

*D_NET *173 0.0168007
*CONN
*I *2382:A I *D sky130_fd_sc_hd__clkbuf_16
*I *2383:A I *D sky130_fd_sc_hd__clkbuf_16
*I *2381:A I *D sky130_fd_sc_hd__clkbuf_16
*I *2380:A I *D sky130_fd_sc_hd__clkbuf_16
*I *2379:X O *D sky130_fd_sc_hd__clkbuf_16
*CAP
1 *2382:A 0
2 *2383:A 0
3 *2381:A 0
4 *2380:A 0.000444244
5 *2379:X 7.56098e-05
6 *173:79 0.000619776
7 *173:62 0.0006556
8 *173:52 0.00241852
9 *173:45 0.000579206
10 *173:18 0.00268814
11 *173:14 0.00280783
12 *173:12 7.56098e-05
13 *173:12 *207:29 2.54169e-06
14 *173:18 *190:16 0.000127537
15 *173:45 *174:181 2.33476e-05
16 *173:45 *175:33 0.000176842
17 *173:45 *183:24 9.41704e-05
18 *173:45 *194:32 9.41704e-05
19 *173:62 *180:107 9.83566e-06
20 *173:62 *205:68 1.81712e-05
21 *173:79 *207:29 1.23662e-05
22 *39:24 *173:45 0.000136785
23 *39:32 *173:12 2.26497e-05
24 *39:32 *173:52 0.000225511
25 *51:14 *2380:A 2.39807e-05
26 *75:32 *2380:A 6.59111e-05
27 *75:32 *173:45 2.73218e-05
28 *89:8 *173:12 2.47015e-05
29 *89:8 *173:18 0.000137179
30 *103:8 *173:45 5.3304e-05
31 *107:10 *173:18 0.000127194
32 *124:16 *2380:A 0
33 *124:22 *173:18 0.000110915
34 *127:20 *173:62 0.000805919
35 *133:16 *173:12 8.85541e-06
36 *141:68 *173:79 1.40476e-05
37 *141:114 *173:79 2.39911e-05
38 *151:90 *173:45 0.000116419
39 *153:22 *2380:A 4.30108e-05
40 *153:22 *173:45 3.22986e-05
41 *158:22 *173:79 7.51535e-06
42 *163:50 *173:18 0.00182043
43 *163:50 *173:52 0.00142482
44 *163:50 *173:79 0.000624374
*RES
1 *2379:X *173:12 46.42 
2 *173:12 *173:14 8 
3 *173:14 *173:18 12.4987 
4 *173:18 *2380:A 47.3732 
5 *173:18 *173:45 30.8655 
6 *173:45 *2381:A 23 
7 *173:14 *173:52 3.4832 
8 *173:52 *173:62 33.3177 
9 *173:62 *2383:A 23 
10 *173:52 *173:79 33.4783 
11 *173:79 *2382:A 23 
*END

*D_NET *174 0.0317643
*CONN
*I *613:DIODE I *D sky130_fd_sc_hd__diode_2
*I *2384:A I *D sky130_fd_sc_hd__clkinv_2
*I *575:DIODE I *D sky130_fd_sc_hd__diode_2
*I *548:DIODE I *D sky130_fd_sc_hd__diode_2
*I *2341:CLK I *D sky130_fd_sc_hd__dfrtp_4
*I *2357:CLK I *D sky130_fd_sc_hd__dfrtp_4
*I *555:DIODE I *D sky130_fd_sc_hd__diode_2
*I *2345:CLK I *D sky130_fd_sc_hd__dfrtp_4
*I *602:DIODE I *D sky130_fd_sc_hd__diode_2
*I *2371:CLK I *D sky130_fd_sc_hd__dfrtp_2
*I *578:DIODE I *D sky130_fd_sc_hd__diode_2
*I *2359:CLK I *D sky130_fd_sc_hd__dfrtp_4
*I *596:DIODE I *D sky130_fd_sc_hd__diode_2
*I *2367:CLK I *D sky130_fd_sc_hd__dfrtp_2
*I *586:DIODE I *D sky130_fd_sc_hd__diode_2
*I *2363:CLK I *D sky130_fd_sc_hd__dfrtp_4
*I *579:DIODE I *D sky130_fd_sc_hd__diode_2
*I *2360:CLK I *D sky130_fd_sc_hd__dfrtp_4
*I *2380:X O *D sky130_fd_sc_hd__clkbuf_16
*CAP
1 *613:DIODE 0
2 *2384:A 0
3 *575:DIODE 0
4 *548:DIODE 8.54809e-05
5 *2341:CLK 0
6 *2357:CLK 0
7 *555:DIODE 0
8 *2345:CLK 6.05515e-05
9 *602:DIODE 0
10 *2371:CLK 0
11 *578:DIODE 0.000203298
12 *2359:CLK 9.55156e-05
13 *596:DIODE 0
14 *2367:CLK 0
15 *586:DIODE 0
16 *2363:CLK 4.88471e-05
17 *579:DIODE 0
18 *2360:CLK 7.083e-05
19 *2380:X 0
20 *174:209 5.95962e-05
21 *174:181 0.000288221
22 *174:173 0.000902072
23 *174:165 0.00103978
24 *174:156 0.000809052
25 *174:139 0.000325027
26 *174:126 0.000393855
27 *174:92 0.000787651
28 *174:80 0.000179744
29 *174:72 0.00100065
30 *174:54 0.000811014
31 *174:41 0.000924047
32 *174:28 0.00106612
33 *174:26 0.00210292
34 *174:24 0.00106356
35 *174:18 0.000637002
36 *174:16 0.000745122
37 *174:10 0.000634723
38 *174:6 0.000175204
39 *174:4 0.000140239
40 *578:DIODE *185:84 0.000156487
41 *2359:CLK *201:48 0.000135037
42 *2363:CLK *197:12 8.1796e-05
43 *174:6 *209:142 0.000177604
44 *174:10 *209:142 0.00026457
45 *174:16 *182:32 0.000176963
46 *174:16 *189:24 8.55549e-05
47 *174:18 *189:24 0.000141098
48 *174:18 *206:12 0.000155209
49 *174:18 *206:38 2.39806e-05
50 *174:26 *185:84 0.00107919
51 *174:28 *184:84 0
52 *174:28 *185:84 0.000161121
53 *174:41 *183:63 0.000230726
54 *174:54 *183:63 0.000985025
55 *174:92 *185:84 0.00103042
56 *174:126 *182:32 0.000129454
57 *174:156 *206:40 0.000184825
58 *174:156 *210:78 0.000182585
59 *174:165 *190:6 0.000140927
60 *174:165 *190:16 6.17437e-06
61 *174:165 *217:26 0.000198878
62 *174:181 *175:33 5.59383e-05
63 *174:181 *211:48 5.3304e-05
64 *174:181 *212:63 0.000110913
65 *262:DIODE *174:18 0.000220592
66 *2357:RESET_B *174:165 9.71977e-05
67 *2359:D *2359:CLK 8.85386e-05
68 *2360:D *2360:CLK 6.94917e-05
69 *2363:D *2363:CLK 8.1796e-05
70 *2363:RESET_B *2360:CLK 4.41734e-05
71 *2363:RESET_B *174:28 3.09013e-05
72 *2367:D *174:72 0.000554118
73 *2367:D *174:80 9.4713e-05
74 *2371:D *174:18 6.96783e-05
75 *2371:D *174:24 0.000353164
76 *2371:RESET_B *174:18 0.000111298
77 *17:22 *174:18 0.00032247
78 *17:22 *174:24 0.000330988
79 *17:24 *174:16 9.66585e-05
80 *17:24 *174:18 0.000728263
81 *26:10 *174:80 8.9458e-05
82 *27:14 *174:156 0.000135037
83 *27:14 *174:165 6.53382e-05
84 *30:18 *2360:CLK 4.41821e-06
85 *30:18 *174:28 0.000476666
86 *39:24 *174:181 0.000261646
87 *48:10 *548:DIODE 8.17328e-05
88 *48:10 *174:173 0.000302817
89 *51:12 *174:173 0.000558294
90 *55:12 *174:209 0.000136486
91 *68:8 *578:DIODE 0.000140308
92 *87:10 *174:126 0.000342125
93 *89:8 *174:173 0.000566771
94 *90:20 *174:92 0.00011563
95 *96:20 *174:16 0.000389063
96 *96:20 *174:126 0.000434544
97 *96:46 *174:126 0.000184825
98 *105:16 *578:DIODE 5.72749e-05
99 *105:16 *174:92 0.000460458
100 *113:26 *2345:CLK 0.000110216
101 *113:26 *174:139 2.02872e-05
102 *113:26 *174:156 0.000200124
103 *116:50 *2345:CLK 2.79543e-05
104 *116:50 *174:139 2.02872e-05
105 *116:50 *174:156 0.000219383
106 *120:16 *174:28 6.04593e-05
107 *123:12 *174:209 0.000138718
108 *131:14 *578:DIODE 2.40336e-05
109 *131:14 *2359:CLK 9.67916e-05
110 *131:14 *174:92 5.58473e-05
111 *134:39 *174:6 8.27026e-05
112 *134:39 *174:10 0.000139774
113 *134:39 *174:181 2.43944e-05
114 *134:65 *174:181 1.21972e-05
115 *158:24 *174:80 9.168e-05
116 *165:16 *174:26 0.00106904
117 *165:16 *174:28 0.000185755
118 *172:58 *174:156 3.65917e-05
119 *172:58 *174:165 0.000429897
120 *173:45 *174:181 2.33476e-05
*RES
1 *2380:X *174:4 23 
2 *174:4 *174:6 2.05071 
3 *174:6 *174:10 18.0036 
4 *174:10 *174:16 21.525 
5 *174:16 *174:18 14.9143 
6 *174:18 *174:24 19.4536 
7 *174:24 *174:26 14.935 
8 *174:26 *174:28 17.0479 
9 *174:28 *2360:CLK 39.9057 
10 *174:28 *174:41 17.5271 
11 *174:41 *579:DIODE 23 
12 *174:41 *174:54 42.18 
13 *174:54 *2363:CLK 25.0714 
14 *174:54 *586:DIODE 23 
15 *174:26 *174:72 26.5793 
16 *174:72 *174:80 33.2521 
17 *174:80 *2367:CLK 23 
18 *174:72 *596:DIODE 23 
19 *174:24 *174:92 14.2307 
20 *174:92 *2359:CLK 40.5271 
21 *174:92 *578:DIODE 41.8321 
22 *174:18 *2371:CLK 23 
23 *174:16 *602:DIODE 23 
24 *174:10 *174:126 23.5964 
25 *174:126 *2345:CLK 25.0921 
26 *174:126 *174:139 0.621429 
27 *174:139 *555:DIODE 23 
28 *174:139 *174:156 37.2086 
29 *174:156 *2357:CLK 23 
30 *174:156 *174:165 12.5529 
31 *174:165 *174:173 41.3721 
32 *174:173 *174:181 35.7171 
33 *174:181 *2341:CLK 23 
34 *174:173 *548:DIODE 24.0979 
35 *174:165 *575:DIODE 23 
36 *174:6 *2384:A 23 
37 *174:4 *174:209 31.9057 
38 *174:209 *613:DIODE 23 
*END

*D_NET *175 0.0392718
*CONN
*I *2347:CLK I *D sky130_fd_sc_hd__dfrtp_4
*I *558:DIODE I *D sky130_fd_sc_hd__diode_2
*I *549:DIODE I *D sky130_fd_sc_hd__diode_2
*I *2354:CLK I *D sky130_fd_sc_hd__dfrtp_2
*I *568:DIODE I *D sky130_fd_sc_hd__diode_2
*I *2342:CLK I *D sky130_fd_sc_hd__dfrtp_4
*I *2362:CLK I *D sky130_fd_sc_hd__dfrtp_4
*I *583:DIODE I *D sky130_fd_sc_hd__diode_2
*I *589:DIODE I *D sky130_fd_sc_hd__diode_2
*I *2364:CLK I *D sky130_fd_sc_hd__dfrtp_2
*I *2343:CLK I *D sky130_fd_sc_hd__dfrtp_4
*I *551:DIODE I *D sky130_fd_sc_hd__diode_2
*I *598:DIODE I *D sky130_fd_sc_hd__diode_2
*I *2369:CLK I *D sky130_fd_sc_hd__dfrtp_4
*I *563:DIODE I *D sky130_fd_sc_hd__diode_2
*I *2350:CLK I *D sky130_fd_sc_hd__dfrtp_4
*I *561:DIODE I *D sky130_fd_sc_hd__diode_2
*I *2349:CLK I *D sky130_fd_sc_hd__dfrtp_4
*I *611:DIODE I *D sky130_fd_sc_hd__diode_2
*I *2353:CLK I *D sky130_fd_sc_hd__dfrtp_4
*I *567:DIODE I *D sky130_fd_sc_hd__diode_2
*I *2377:CLK I *D sky130_fd_sc_hd__dfrtp_4
*I *2381:X O *D sky130_fd_sc_hd__clkbuf_16
*CAP
1 *2347:CLK 0.000126968
2 *558:DIODE 0
3 *549:DIODE 0
4 *2354:CLK 9.0817e-05
5 *568:DIODE 0
6 *2342:CLK 4.45235e-05
7 *2362:CLK 4.8209e-05
8 *583:DIODE 0
9 *589:DIODE 4.99221e-05
10 *2364:CLK 0.000902289
11 *2343:CLK 0.000107927
12 *551:DIODE 0
13 *598:DIODE 0
14 *2369:CLK 9.43163e-05
15 *563:DIODE 0
16 *2350:CLK 0.000937107
17 *561:DIODE 0
18 *2349:CLK 0.000700324
19 *611:DIODE 0
20 *2353:CLK 0.000234375
21 *567:DIODE 0
22 *2377:CLK 0
23 *2381:X 0.000244622
24 *175:242 0.000228974
25 *175:219 0.00056449
26 *175:206 0.000544392
27 *175:195 0.000185858
28 *175:189 0.000335921
29 *175:185 0.000779157
30 *175:168 0.00104057
31 *175:153 0.000799608
32 *175:140 0.00133711
33 *175:124 0.000107927
34 *175:108 0.00069594
35 *175:92 0.00111616
36 *175:90 0.00142019
37 *175:86 0.000848539
38 *175:84 0.00132482
39 *175:75 0.00120237
40 *175:64 0.00155784
41 *175:33 0.00136035
42 *175:24 0.0011884
43 *175:18 0.00025464
44 *175:16 0.0011562
45 *175:10 0.000710692
46 *2342:CLK *194:18 2.02872e-05
47 *2343:CLK *220:32 0.000173179
48 *2349:CLK *213:10 1.54424e-05
49 *2353:CLK *2281:A 1.69038e-05
50 *2353:CLK *186:96 4.54709e-05
51 *2362:CLK *211:10 2.95125e-05
52 *175:10 *178:10 5.91105e-05
53 *175:10 *178:48 0.000394909
54 *175:16 *178:6 0.000156123
55 *175:18 *178:6 0.000353317
56 *175:18 *213:20 4.21921e-05
57 *175:24 *178:6 0.000145171
58 *175:24 *213:20 0.000147489
59 *175:24 *213:182 0
60 *175:33 *210:125 0.000211411
61 *175:33 *212:63 0.000110913
62 *175:33 *213:182 0
63 *175:64 *190:44 0
64 *175:64 *204:82 0.000711903
65 *175:75 *213:10 1.39396e-05
66 *175:86 *203:44 0
67 *175:90 *180:20 0
68 *175:90 *203:44 0
69 *175:185 *211:34 0.000627888
70 *175:219 *211:10 9.92307e-06
71 *175:219 *211:60 0.000364568
72 *550:DIODE *2362:CLK 8.62783e-05
73 *550:DIODE *175:206 5.94125e-05
74 *550:DIODE *175:219 3.54739e-05
75 *552:DIODE *2343:CLK 0.000146197
76 *559:DIODE *175:219 0.00019747
77 *2303:A *175:84 8.69811e-05
78 *2342:D *2342:CLK 5.3304e-05
79 *2342:RESET_B *2342:CLK 9.41704e-05
80 *2342:RESET_B *175:189 0.000186369
81 *2342:RESET_B *175:195 7.32045e-05
82 *2343:RESET_B *2343:CLK 9.15509e-05
83 *2349:RESET_B *2349:CLK 0.000204376
84 *2350:RESET_B *2350:CLK 0.000494356
85 *2350:RESET_B *175:92 0.000267098
86 *2350:RESET_B *175:108 0.000837542
87 *2353:D *2353:CLK 0.000227145
88 *2354:RESET_B *2354:CLK 9.5877e-05
89 *2354:RESET_B *175:219 8.57577e-05
90 *2362:RESET_B *175:185 0.000193667
91 *2364:RESET_B *2364:CLK 0.000306553
92 *2369:RESET_B *2369:CLK 5.45644e-05
93 *16:8 *175:10 5.71002e-06
94 *23:20 *2353:CLK 1.55261e-05
95 *24:14 *2354:CLK 0.000141052
96 *31:24 *175:219 1.20966e-05
97 *39:24 *175:33 0.000260362
98 *39:32 *2353:CLK 3.77538e-05
99 *40:18 *2350:CLK 0.00012144
100 *41:20 *2364:CLK 4.57455e-05
101 *48:18 *2347:CLK 7.4416e-05
102 *50:12 *2349:CLK 5.50049e-05
103 *51:22 *2350:CLK 6.43175e-05
104 *53:8 *175:84 0.000139974
105 *54:6 *2369:CLK 4.94011e-05
106 *54:6 *175:108 2.40002e-06
107 *58:26 *175:219 0.000101708
108 *73:18 *175:168 4.21158e-05
109 *73:18 *175:185 0.000185364
110 *77:10 *175:185 9.74235e-05
111 *77:10 *175:242 8.70172e-05
112 *80:14 *175:33 0
113 *80:18 *175:86 0.000311167
114 *80:18 *175:90 0.000591094
115 *80:18 *175:140 0.000412115
116 *80:18 *175:153 0.000196913
117 *80:18 *175:168 0.000904271
118 *107:10 *175:33 6.07549e-05
119 *110:10 *175:185 0.000197479
120 *110:10 *175:242 0.000177758
121 *119:24 *2353:CLK 4.17992e-05
122 *119:24 *175:33 1.00286e-05
123 *123:20 *175:64 0.000174008
124 *124:22 *2353:CLK 2.53488e-05
125 *124:22 *175:33 0.00127639
126 *126:10 *2362:CLK 0.000141869
127 *126:10 *175:206 5.15096e-05
128 *126:10 *175:219 0.0011954
129 *143:28 *589:DIODE 5.3304e-05
130 *151:61 *175:168 0.000213171
131 *151:90 *175:10 9.77405e-05
132 *151:94 *175:24 6.20238e-05
133 *151:94 *175:33 0.000377998
134 *153:8 *175:10 9.77405e-05
135 *156:65 *175:10 8.15422e-05
136 *156:71 *175:10 0.00011378
137 *156:71 *175:16 8.30586e-05
138 *156:77 *175:16 5.58003e-05
139 *169:125 *175:140 6.94223e-05
140 *170:14 *175:84 0.000273267
141 *172:46 *175:33 0.000284887
142 *173:45 *175:33 0.000176842
143 *174:181 *175:33 5.59383e-05
*RES
1 *2381:X *175:10 45.2293 
2 *175:10 *175:16 20.8829 
3 *175:16 *175:18 3.95643 
4 *175:18 *175:24 17.4236 
5 *175:24 *2377:CLK 38 
6 *175:24 *175:33 27.9643 
7 *175:33 *567:DIODE 38 
8 *175:33 *2353:CLK 43.6343 
9 *175:18 *611:DIODE 23 
10 *175:16 *175:64 40.005 
11 *175:64 *2349:CLK 32.57 
12 *175:64 *175:75 3.95643 
13 *175:75 *561:DIODE 23 
14 *175:75 *175:84 26.5793 
15 *175:84 *175:86 4.37071 
16 *175:86 *175:90 27.8221 
17 *175:90 *175:92 3.00357 
18 *175:92 *2350:CLK 36.8579 
19 *175:92 *563:DIODE 23 
20 *175:90 *175:108 9.67357 
21 *175:108 *2369:CLK 25.4236 
22 *175:108 *598:DIODE 23 
23 *175:86 *175:124 15 
24 *175:124 *551:DIODE 23 
25 *175:124 *2343:CLK 26.9771 
26 *175:84 *175:140 5.77929 
27 *175:140 *2364:CLK 49.9521 
28 *175:140 *175:153 2.96214 
29 *175:153 *589:DIODE 38.6214 
30 *175:153 *175:168 28.5679 
31 *175:168 *583:DIODE 23 
32 *175:168 *175:185 27.47 
33 *175:185 *175:189 18.9564 
34 *175:189 *175:195 16.595 
35 *175:195 *2362:CLK 39.9057 
36 *175:195 *175:206 0.849286 
37 *175:206 *2342:CLK 39.0979 
38 *175:206 *175:219 31.3436 
39 *175:219 *568:DIODE 23 
40 *175:219 *2354:CLK 25.4236 
41 *175:189 *549:DIODE 23 
42 *175:185 *175:242 17.61 
43 *175:242 *558:DIODE 23 
44 *175:242 *2347:CLK 25.4236 
*END

*D_NET *176 0.0298219
*CONN
*I *560:DIODE I *D sky130_fd_sc_hd__diode_2
*I *2348:CLK I *D sky130_fd_sc_hd__dfrtp_2
*I *564:DIODE I *D sky130_fd_sc_hd__diode_2
*I *2355:CLK I *D sky130_fd_sc_hd__dfrtp_2
*I *576:DIODE I *D sky130_fd_sc_hd__diode_2
*I *2358:CLK I *D sky130_fd_sc_hd__dfrtp_4
*I *582:DIODE I *D sky130_fd_sc_hd__diode_2
*I *2361:CLK I *D sky130_fd_sc_hd__dfrtp_4
*I *570:DIODE I *D sky130_fd_sc_hd__diode_2
*I *2351:CLK I *D sky130_fd_sc_hd__dfrtp_4
*I *557:DIODE I *D sky130_fd_sc_hd__diode_2
*I *2346:CLK I *D sky130_fd_sc_hd__dfrtp_4
*I *614:DIODE I *D sky130_fd_sc_hd__diode_2
*I *2385:A I *D sky130_fd_sc_hd__clkinvlp_4
*I *2382:X O *D sky130_fd_sc_hd__clkbuf_16
*CAP
1 *560:DIODE 0.000335226
2 *2348:CLK 0.000138661
3 *564:DIODE 0
4 *2355:CLK 0
5 *576:DIODE 0
6 *2358:CLK 6.61353e-05
7 *582:DIODE 0
8 *2361:CLK 0.00103289
9 *570:DIODE 0
10 *2351:CLK 0
11 *557:DIODE 0.000402632
12 *2346:CLK 0
13 *614:DIODE 0
14 *2385:A 0.000224719
15 *2382:X 0
16 *176:142 0.00159278
17 *176:129 0.00086761
18 *176:123 0.00211911
19 *176:102 0.000472292
20 *176:82 0.00213716
21 *176:76 0.00151042
22 *176:74 0.000133967
23 *176:65 0.00134573
24 *176:63 0.0014402
25 *176:52 0.000460838
26 *176:38 0.000173809
27 *176:30 0.00146308
28 *176:17 0.000953837
29 *176:13 0.000432188
30 *176:4 0.000224719
31 *560:DIODE *212:8 0.000171821
32 *2348:CLK *212:8 0.000132572
33 *2358:CLK *185:114 0.000139352
34 *2385:A *180:109 0.000157128
35 *176:17 *212:12 0.000194318
36 *176:30 *197:90 0.000218176
37 *176:52 *212:12 0.000777432
38 *176:63 *212:12 0.000175884
39 *176:74 *188:8 2.64616e-05
40 *176:82 *188:12 0.00183066
41 *176:102 *185:84 0.00010574
42 *176:102 *185:114 0.000141954
43 *176:102 *188:12 6.2088e-05
44 *176:102 *188:102 0.000101014
45 *176:102 *188:110 5.71002e-06
46 *176:102 *212:118 0.00017238
47 *176:142 *212:10 0
48 *176:142 *212:12 0
49 *540:DIODE *176:129 0.00012016
50 *2351:RESET_B *176:129 0.000216154
51 *2355:RESET_B *176:65 0.000182051
52 *2355:RESET_B *176:74 8.58827e-05
53 *2361:RESET_B *2361:CLK 0.000449838
54 *2361:RESET_B *176:82 8.92035e-05
55 *18:10 *176:82 0
56 *18:10 *176:102 0
57 *21:24 *176:17 0.000192087
58 *21:24 *176:52 0.000514089
59 *21:36 *176:129 3.42398e-05
60 *25:10 *176:82 3.50862e-06
61 *25:10 *176:102 3.21627e-05
62 *49:14 *2348:CLK 7.6592e-05
63 *59:18 *176:129 3.48854e-05
64 *59:18 *176:142 0.00160023
65 *66:32 *176:52 0.000243239
66 *66:32 *176:63 7.22307e-05
67 *66:32 *176:65 0.00115912
68 *66:32 *176:123 4.53082e-05
69 *90:20 *176:82 0.000173453
70 *94:16 *176:63 1.41891e-05
71 *94:18 *176:30 0
72 *94:18 *176:38 2.59227e-05
73 *94:18 *176:52 1.11421e-05
74 *95:12 *176:129 9.17458e-05
75 *95:18 *176:30 0.000822975
76 *95:18 *176:38 0
77 *100:99 *557:DIODE 8.53902e-05
78 *100:99 *176:38 0.000144664
79 *100:108 *557:DIODE 0.000187692
80 *100:117 *557:DIODE 0.000139677
81 *112:12 *2358:CLK 0.000180218
82 *112:12 *176:102 0.000128723
83 *122:57 *176:102 0.000183785
84 *170:127 *176:65 0.00021677
85 *170:127 *176:123 0.000316846
86 *172:188 *176:129 7.00439e-06
*RES
1 *2382:X *176:4 23 
2 *176:4 *2385:A 26.48 
3 *176:4 *176:13 15 
4 *176:13 *176:17 17.61 
5 *176:17 *614:DIODE 23 
6 *176:17 *176:30 45.8464 
7 *176:30 *176:38 32.7757 
8 *176:38 *2346:CLK 23 
9 *176:30 *557:DIODE 28.8621 
10 *176:13 *176:52 11.0614 
11 *176:52 *2351:CLK 38 
12 *176:52 *176:63 17.61 
13 *176:63 *176:65 26.3486 
14 *176:65 *570:DIODE 23 
15 *176:65 *176:74 2.54786 
16 *176:74 *176:76 15 
17 *176:76 *176:82 40.8929 
18 *176:82 *2361:CLK 36.3814 
19 *176:82 *582:DIODE 23 
20 *176:76 *176:102 24.8186 
21 *176:102 *2358:CLK 25.0507 
22 *176:102 *576:DIODE 23 
23 *176:74 *2355:CLK 23 
24 *176:63 *176:123 18.48 
25 *176:123 *176:129 27.0557 
26 *176:129 *564:DIODE 23 
27 *176:123 *176:142 39.2771 
28 *176:142 *2348:CLK 26.9564 
29 *176:142 *560:DIODE 30.2914 
*END

*D_NET *177 0.0245966
*CONN
*I *2370:CLK I *D sky130_fd_sc_hd__dfrtp_4
*I *600:DIODE I *D sky130_fd_sc_hd__diode_2
*I *592:DIODE I *D sky130_fd_sc_hd__diode_2
*I *2365:CLK I *D sky130_fd_sc_hd__dfrtp_4
*I *2372:CLK I *D sky130_fd_sc_hd__dfrtp_1
*I *604:DIODE I *D sky130_fd_sc_hd__diode_2
*I *615:DIODE I *D sky130_fd_sc_hd__diode_2
*I *2386:A I *D sky130_fd_sc_hd__clkinv_2
*I *2352:CLK I *D sky130_fd_sc_hd__dfrtp_4
*I *566:DIODE I *D sky130_fd_sc_hd__diode_2
*I *2366:CLK I *D sky130_fd_sc_hd__dfrtp_2
*I *594:DIODE I *D sky130_fd_sc_hd__diode_2
*I *2368:CLK I *D sky130_fd_sc_hd__dfrtp_1
*I *597:DIODE I *D sky130_fd_sc_hd__diode_2
*I *2344:CLK I *D sky130_fd_sc_hd__dfrtp_2
*I *2356:CLK I *D sky130_fd_sc_hd__dfrtp_4
*I *572:DIODE I *D sky130_fd_sc_hd__diode_2
*I *553:DIODE I *D sky130_fd_sc_hd__diode_2
*I *2383:X O *D sky130_fd_sc_hd__clkbuf_16
*CAP
1 *2370:CLK 8.16352e-05
2 *600:DIODE 0
3 *592:DIODE 0
4 *2365:CLK 0
5 *2372:CLK 0.000153096
6 *604:DIODE 0
7 *615:DIODE 0
8 *2386:A 0.000124915
9 *2352:CLK 0
10 *566:DIODE 0.000153793
11 *2366:CLK 0.000155722
12 *594:DIODE 0
13 *2368:CLK 0.000171308
14 *597:DIODE 0
15 *2344:CLK 0
16 *2356:CLK 0.000129692
17 *572:DIODE 0
18 *553:DIODE 0
19 *2383:X 0
20 *177:170 0.00164647
21 *177:166 0.00168467
22 *177:157 0.000600607
23 *177:136 0.000650988
24 *177:126 0.000638256
25 *177:124 0.000828372
26 *177:108 0.00027925
27 *177:104 0.00046729
28 *177:95 0.000143492
29 *177:84 0.000321876
30 *177:68 0.00076164
31 *177:52 0.00126901
32 *177:50 0.00170362
33 *177:31 0.000670776
34 *177:23 0.00127096
35 *177:12 0.00124262
36 *177:8 0.000599983
37 *177:6 0.000217552
38 *2356:CLK *189:10 0.000135037
39 *2366:CLK *199:82 1.21972e-05
40 *2366:CLK *199:88 4.27272e-05
41 *2366:CLK *200:10 4.67488e-05
42 *2368:CLK *199:88 5.50833e-05
43 *2370:CLK *204:6 0.00010018
44 *2386:A *181:194 6.17437e-06
45 *2386:A *197:90 0.000221084
46 *177:31 *179:10 0.000194318
47 *177:52 *199:88 8.58057e-05
48 *177:68 *199:88 5.17641e-05
49 *177:108 *2263:A 0.000135037
50 *177:108 *181:194 0.000202116
51 *177:108 *197:90 0.00025399
52 *177:124 *216:10 2.72055e-05
53 *177:136 *472:DIODE 2.24973e-05
54 *177:136 *2282:A 5.3304e-05
55 *177:136 *182:136 9.84794e-05
56 *177:136 *185:78 6.33511e-05
57 *177:136 *202:92 8.4047e-05
58 *177:157 *199:10 2.93431e-05
59 *177:157 *199:74 6.25091e-05
60 *177:157 *200:86 0.000397526
61 *177:170 *2230:B 1.87502e-05
62 *177:170 *2230:C 2.60152e-05
63 *177:170 *186:117 6.68793e-05
64 *177:170 *192:122 0
65 *177:170 *214:106 0
66 *345:DIODE *177:157 0.000137651
67 *2344:RESET_B *177:23 0.000314363
68 *2352:D *566:DIODE 9.62666e-05
69 *2356:D *2356:CLK 8.73233e-05
70 *2365:D *177:126 6.53382e-05
71 *2365:D *177:136 6.17437e-06
72 *2365:RESET_B *177:104 1.85086e-05
73 *2365:RESET_B *177:124 0.000188686
74 *2370:D *177:170 0
75 *41:28 *177:170 0
76 *42:20 *177:12 0.000153742
77 *45:14 *177:23 6.9908e-05
78 *52:10 *177:31 0.000195248
79 *55:20 *177:23 9.67842e-05
80 *55:26 *177:12 1.58805e-05
81 *109:16 *177:170 0
82 *109:20 *177:170 0
83 *109:22 *177:170 0
84 *110:10 *177:170 0.000536225
85 *112:8 *177:170 0
86 *119:85 *2372:CLK 9.47033e-05
87 *119:85 *177:136 6.97326e-05
88 *119:97 *177:136 6.17437e-06
89 *141:92 *177:157 9.44958e-05
90 *141:92 *177:166 0.000158344
91 *144:16 *177:126 0.000164455
92 *144:16 *177:136 0.000267348
93 *144:16 *177:157 0.000366051
94 *144:16 *177:166 0.000161605
95 *149:30 *177:104 0.000121284
96 *150:16 *177:8 6.12005e-05
97 *150:16 *177:12 1.94812e-05
98 *150:16 *177:84 5.12741e-05
99 *150:16 *177:95 2.64459e-05
100 *150:16 *177:104 3.34818e-06
101 *150:29 *177:124 1.7992e-05
102 *154:10 *177:12 0
103 *161:8 *177:126 4.2062e-05
104 *161:8 *177:136 1.21972e-05
105 *161:10 *177:8 0.000210582
106 *161:10 *177:12 0.000810045
107 *161:10 *177:84 0.000198527
108 *161:10 *177:95 7.869e-05
109 *161:10 *177:104 0.000170168
110 *161:10 *177:124 0.00035568
111 *170:121 *177:170 0.000592873
*RES
1 *2383:X *177:6 38 
2 *177:6 *177:8 2.96214 
3 *177:8 *177:12 26.0614 
4 *177:12 *553:DIODE 23 
5 *177:12 *177:23 12.2214 
6 *177:23 *177:31 38.9486 
7 *177:31 *572:DIODE 23 
8 *177:31 *2356:CLK 25.5271 
9 *177:23 *2344:CLK 23 
10 *177:8 *177:50 15 
11 *177:50 *177:52 12.5321 
12 *177:52 *597:DIODE 23 
13 *177:52 *2368:CLK 25.9 
14 *177:50 *177:68 7.29143 
15 *177:68 *594:DIODE 23 
16 *177:68 *2366:CLK 25.9 
17 *177:6 *177:84 2.96214 
18 *177:84 *566:DIODE 40.0507 
19 *177:84 *177:95 1.20143 
20 *177:95 *2352:CLK 38 
21 *177:95 *177:104 2.61 
22 *177:104 *177:108 19.4329 
23 *177:108 *2386:A 25.5271 
24 *177:108 *615:DIODE 23 
25 *177:104 *177:124 21.1314 
26 *177:124 *177:126 3.48 
27 *177:126 *177:136 38.8657 
28 *177:136 *604:DIODE 23 
29 *177:136 *2372:CLK 25.9 
30 *177:126 *2365:CLK 23 
31 *177:124 *177:157 12.0557 
32 *177:157 *592:DIODE 23 
33 *177:157 *177:166 18.48 
34 *177:166 *177:170 47.8943 
35 *177:170 *600:DIODE 23 
36 *177:170 *2370:CLK 24.9471 
*END

*D_NET *178 0.0357445
*CONN
*I *2189:A I *D sky130_fd_sc_hd__xnor2_1
*I *608:DIODE I *D sky130_fd_sc_hd__diode_2
*I *2375:CLK I *D sky130_fd_sc_hd__dfrtp_4
*I *258:DIODE I *D sky130_fd_sc_hd__diode_2
*I *2376:CLK I *D sky130_fd_sc_hd__dfrtp_4
*I *610:DIODE I *D sky130_fd_sc_hd__diode_2
*I *2374:CLK I *D sky130_fd_sc_hd__dfrtp_4
*I *606:DIODE I *D sky130_fd_sc_hd__diode_2
*I *2373:CLK I *D sky130_fd_sc_hd__dfrtp_4
*I *605:DIODE I *D sky130_fd_sc_hd__diode_2
*I *2377:Q O *D sky130_fd_sc_hd__dfrtp_4
*CAP
1 *2189:A 0.00016317
2 *608:DIODE 3.89695e-05
3 *2375:CLK 2.71027e-05
4 *258:DIODE 6.90534e-05
5 *2376:CLK 4.83416e-05
6 *610:DIODE 0
7 *2374:CLK 0
8 *606:DIODE 0.000112624
9 *2373:CLK 4.39227e-05
10 *605:DIODE 0
11 *2377:Q 0.000790389
12 *178:99 6.60721e-05
13 *178:97 0.00203059
14 *178:95 0.00203059
15 *178:93 0.00122274
16 *178:85 0.00149098
17 *178:74 0.00180781
18 *178:52 9.75968e-05
19 *178:48 0.00250186
20 *178:34 0.00035309
21 *178:16 0.000387909
22 *178:10 0.0007636
23 *178:8 0.000998074
24 *178:6 0.000790389
25 *2189:A *206:84 0
26 *2373:CLK *219:26 9.41704e-05
27 *2376:CLK *221:12 2.81066e-05
28 *178:6 *213:20 0.000488027
29 *178:6 *214:22 0.00055893
30 *178:16 *219:26 0.000570056
31 *178:48 *2245:C 0.000254553
32 *178:48 *192:92 0.000943576
33 *178:52 *221:12 2.81066e-05
34 *178:74 *181:150 0.000184291
35 *178:74 *181:166 0.000388502
36 *178:74 *182:113 0.000603954
37 *178:74 *182:128 0.00061936
38 *178:74 *192:92 0.000712304
39 *2217:A *178:93 0.000555779
40 *2324:A *178:93 0.000136738
41 *2373:D *2373:CLK 5.3304e-05
42 *2374:D *178:10 6.5117e-06
43 *2374:D *178:34 5.5792e-05
44 *2374:D *178:48 7.01044e-06
45 *2374:RESET_B *178:10 2.45092e-05
46 *2374:RESET_B *178:16 0.00035879
47 *2374:RESET_B *178:34 5.3304e-05
48 *2375:RESET_B *608:DIODE 0.000172996
49 *2375:RESET_B *2375:CLK 9.84794e-05
50 *2377:D *178:6 2.95423e-05
51 *2377:RESET_B *178:6 0.000135829
52 *19:22 *2376:CLK 8.29713e-05
53 *19:22 *178:52 9.65021e-05
54 *35:22 *178:16 0.000530885
55 *36:26 *178:74 0.000125612
56 *47:14 *178:93 6.97417e-05
57 *49:14 *608:DIODE 7.24484e-05
58 *49:14 *2375:CLK 3.71251e-05
59 *49:14 *178:97 0
60 *72:6 *178:93 0.000774125
61 *82:18 *178:97 0.000803721
62 *83:12 *178:97 0.00139468
63 *100:108 *2189:A 1.59071e-05
64 *100:117 *2189:A 2.93335e-05
65 *103:14 *178:74 1.40672e-05
66 *106:34 *178:97 0.000726648
67 *106:108 *178:97 0.0018909
68 *106:130 *178:97 0
69 *119:8 *178:93 0.000271906
70 *122:45 *178:97 0.000404976
71 *132:18 *178:48 0.00123628
72 *132:28 *178:48 4.98146e-05
73 *134:109 *178:74 0.00030373
74 *141:58 *2189:A 0.000110184
75 *141:58 *178:85 0.000131538
76 *143:24 *606:DIODE 5.3304e-05
77 *143:24 *178:34 3.055e-05
78 *145:10 *178:97 0
79 *148:14 *178:74 0.000162154
80 *148:14 *178:93 0.000440986
81 *156:57 *178:48 0.000469629
82 *156:57 *178:74 0.000156693
83 *156:65 *178:48 0.000115803
84 *156:71 *178:6 5.5792e-05
85 *156:77 *178:6 5.58003e-05
86 *156:77 *178:10 9.21995e-05
87 *162:12 *258:DIODE 0.000100061
88 *162:12 *178:74 0.000557764
89 *169:241 *178:97 0
90 *169:254 *178:97 0
91 *171:116 *178:10 4.41821e-06
92 *171:116 *178:16 0.000142111
93 *172:214 *178:93 2.81138e-05
94 *175:10 *178:10 5.91105e-05
95 *175:10 *178:48 0.000394909
96 *175:16 *178:6 0.000156123
97 *175:18 *178:6 0.000353317
98 *175:24 *178:6 0.000145171
*RES
1 *2377:Q *178:6 43.6314 
2 *178:6 *178:8 15 
3 *178:8 *178:10 3.66643 
4 *178:10 *178:16 26.4136 
5 *178:16 *605:DIODE 23 
6 *178:16 *2373:CLK 24.0979 
7 *178:10 *178:34 18.3764 
8 *178:34 *606:DIODE 24.5743 
9 *178:34 *2374:CLK 23 
10 *178:8 *178:48 25.4993 
11 *178:48 *178:52 16.0979 
12 *178:52 *610:DIODE 23 
13 *178:52 *2376:CLK 24.0979 
14 *178:48 *178:74 48.4121 
15 *178:74 *258:DIODE 24.0979 
16 *178:74 *178:85 16.9057 
17 *178:85 *178:93 37.7029 
18 *178:93 *178:95 15 
19 *178:95 *178:97 52.9664 
20 *178:97 *178:99 15 
21 *178:99 *2375:CLK 24.0979 
22 *178:99 *608:DIODE 25.0507 
23 *178:85 *2189:A 41.1486 
*END

*D_NET *179 0.0609651
*CONN
*I *482:DIODE I *D sky130_fd_sc_hd__diode_2
*I *2288:A1 I *D sky130_fd_sc_hd__a21o_1
*I *477:DIODE I *D sky130_fd_sc_hd__diode_2
*I *2286:A I *D sky130_fd_sc_hd__xor2_2
*I *2297:A I *D sky130_fd_sc_hd__or3_1
*I *501:DIODE I *D sky130_fd_sc_hd__diode_2
*I *498:DIODE I *D sky130_fd_sc_hd__diode_2
*I *2296:A1 I *D sky130_fd_sc_hd__o21ai_2
*I *2295:A1 I *D sky130_fd_sc_hd__a211o_1
*I *494:DIODE I *D sky130_fd_sc_hd__diode_2
*I *470:DIODE I *D sky130_fd_sc_hd__diode_2
*I *2282:A I *D sky130_fd_sc_hd__or3_1
*I *479:DIODE I *D sky130_fd_sc_hd__diode_2
*I *2287:A I *D sky130_fd_sc_hd__nand3_2
*I *476:DIODE I *D sky130_fd_sc_hd__diode_2
*I *2285:B1 I *D sky130_fd_sc_hd__a21oi_1
*I *2373:Q O *D sky130_fd_sc_hd__dfrtp_4
*CAP
1 *482:DIODE 0
2 *2288:A1 0
3 *477:DIODE 0
4 *2286:A 0.000550653
5 *2297:A 0
6 *501:DIODE 0.000160151
7 *498:DIODE 0
8 *2296:A1 0.000225719
9 *2295:A1 0.000593391
10 *494:DIODE 0.000155786
11 *470:DIODE 0.000294404
12 *2282:A 3.80122e-05
13 *479:DIODE 9.23746e-05
14 *2287:A 0
15 *476:DIODE 0
16 *2285:B1 0.00027463
17 *2373:Q 0
18 *179:194 0.000704737
19 *179:190 0.00109044
20 *179:181 0.000993612
21 *179:170 0.000367336
22 *179:168 0.000772579
23 *179:146 0.000455684
24 *179:142 0.00156642
25 *179:129 0.00139218
26 *179:118 0.000705396
27 *179:112 0.000770881
28 *179:104 0.00175575
29 *179:100 0.00189062
30 *179:84 0.000466055
31 *179:82 0.000197292
32 *179:80 0.00102235
33 *179:54 0.000399591
34 *179:52 0.000764518
35 *179:32 9.23746e-05
36 *179:30 0.00111455
37 *179:14 0.000719123
38 *179:10 0.00269516
39 *179:8 0.00187102
40 *179:4 0.00088755
41 *470:DIODE *180:134 7.6144e-05
42 *501:DIODE *187:20 0.000136743
43 *2285:B1 *215:20 6.46548e-05
44 *2286:A *2286:B 0.000221741
45 *2286:A *180:113 0.000136743
46 *2295:A1 *2295:B1 5.90675e-06
47 *2295:A1 *182:46 2.00404e-05
48 *2295:A1 *218:10 5.14746e-06
49 *2296:A1 *201:14 0.000271906
50 *179:8 *219:26 7.59161e-05
51 *179:14 *215:20 0.000961116
52 *179:30 *200:78 8.51432e-05
53 *179:52 *180:141 9.75946e-05
54 *179:52 *180:156 6.99492e-05
55 *179:52 *185:18 0.00136273
56 *179:52 *200:78 0.000134585
57 *179:54 *180:134 0.000166513
58 *179:82 *483:DIODE 0.000188194
59 *179:82 *203:12 0.000454153
60 *179:82 *203:20 0.000348098
61 *179:84 *483:DIODE 0.000133299
62 *179:84 *180:20 5.8118e-05
63 *179:84 *203:20 0.000177817
64 *179:100 *279:DIODE 0.000323913
65 *179:100 *2199:B1 0.000158822
66 *179:100 *2288:B1 0.000188526
67 *179:100 *180:20 5.82853e-05
68 *179:100 *194:55 5.00237e-05
69 *179:100 *194:61 0.000104588
70 *179:100 *203:20 0.000565088
71 *179:100 *205:14 0
72 *179:100 *208:40 3.67392e-05
73 *179:104 *194:73 1.12268e-05
74 *179:104 *194:75 0.000714222
75 *179:104 *205:28 0.000165753
76 *179:112 *189:70 0.000135616
77 *179:112 *193:10 3.36703e-05
78 *179:112 *194:75 0.00128998
79 *179:118 *188:42 0.000218382
80 *179:129 *188:42 0.00020931
81 *179:142 *188:42 0.00146065
82 *179:168 *192:10 0.000191148
83 *179:170 *187:30 0.000115013
84 *179:170 *187:32 0.000136486
85 *179:170 *187:66 2.45554e-05
86 *179:170 *192:18 6.15434e-05
87 *179:181 *187:66 0.000165394
88 *179:181 *192:18 0.000156141
89 *179:190 *186:60 0.00244135
90 *179:190 *187:66 0.000141029
91 *179:190 *192:18 0.000418208
92 *179:190 *192:140 0
93 *179:194 *180:113 0.0002263
94 *475:DIODE *2285:B1 0.000140259
95 *499:DIODE *179:146 5.56356e-05
96 *528:DIODE *179:104 0.000147656
97 *2227:A *2295:A1 8.68168e-05
98 *2227:C *2295:A1 0.00021133
99 *2260:A *179:14 0.000143869
100 *2360:RESET_B *179:104 0.000102389
101 *2360:RESET_B *179:112 1.71761e-05
102 *2365:D *179:54 0.000119159
103 *17:22 *179:146 0.000350075
104 *26:10 *179:168 0
105 *26:10 *179:170 3.71611e-05
106 *26:10 *179:190 2.24151e-05
107 *31:24 *179:10 0.00044016
108 *31:24 *179:30 0.000158386
109 *32:12 *179:190 0.00141478
110 *34:8 *179:10 0.00417698
111 *34:8 *179:80 0
112 *37:29 *179:30 0.000245174
113 *40:6 *179:112 0.00124306
114 *40:18 *179:104 0.000237316
115 *41:24 *179:10 0
116 *47:10 *179:10 0
117 *51:22 *179:104 0.000936537
118 *52:10 *179:10 0.00136538
119 *52:10 *179:30 0.000396453
120 *52:10 *179:52 0.000138195
121 *54:12 *179:80 0.000247881
122 *57:12 *179:10 1.22803e-05
123 *66:12 *179:80 2.26406e-05
124 *66:22 *179:10 0.000108298
125 *68:8 *179:168 6.68919e-05
126 *70:8 *179:104 0.000586878
127 *71:22 *179:104 0.000133461
128 *100:42 *179:142 0.000152298
129 *100:42 *179:168 0.000196426
130 *103:34 *470:DIODE 6.07971e-05
131 *103:34 *179:54 7.75329e-06
132 *106:68 *179:10 0
133 *106:88 *179:30 0
134 *107:8 *179:104 0.000237027
135 *122:14 *2295:A1 0.000365075
136 *122:31 *494:DIODE 4.24646e-05
137 *127:20 *179:142 0.000308305
138 *127:20 *179:190 0.000221572
139 *134:218 *179:168 0.000136743
140 *135:16 *179:82 0.000336578
141 *135:16 *179:100 0.000536122
142 *136:16 *179:168 0.000843324
143 *146:30 *501:DIODE 2.65505e-05
144 *147:10 *179:190 0.000201252
145 *152:16 *479:DIODE 7.15126e-05
146 *155:8 *470:DIODE 9.84851e-05
147 *155:14 *470:DIODE 6.05705e-05
148 *156:89 *179:100 0.000141805
149 *157:12 *179:118 0.000100661
150 *158:24 *179:118 0.000103123
151 *158:24 *179:129 0.000106719
152 *158:24 *179:142 0.000869876
153 *158:24 *179:168 0.000388942
154 *163:14 *179:52 0.000238824
155 *167:44 *2296:A1 4.52991e-05
156 *167:44 *179:146 1.72872e-05
157 *169:34 *179:170 1.69668e-05
158 *169:125 *179:8 0.00014291
159 *169:131 *179:80 4.08537e-05
160 *170:12 *179:80 0
161 *171:14 *179:170 3.3746e-05
162 *171:14 *179:190 4.26793e-05
163 *171:16 *179:168 0.000132374
164 *171:92 *179:104 0.000893364
165 *177:31 *179:10 0.000194318
166 *177:136 *2282:A 5.3304e-05
*RES
1 *2373:Q *179:4 23 
2 *179:4 *179:8 16.5743 
3 *179:8 *179:10 57.1921 
4 *179:10 *179:14 25.6264 
5 *179:14 *2285:B1 27.8057 
6 *179:14 *476:DIODE 23 
7 *179:10 *179:30 11.0614 
8 *179:30 *179:32 15 
9 *179:32 *2287:A 23 
10 *179:32 *479:DIODE 24.5743 
11 *179:30 *179:52 49.0571 
12 *179:52 *179:54 2.25786 
13 *179:54 *2282:A 38.6214 
14 *179:54 *470:DIODE 42.7643 
15 *179:4 *179:80 47.0479 
16 *179:80 *179:82 8.72071 
17 *179:82 *179:84 2.05071 
18 *179:84 *179:100 46.9029 
19 *179:100 *179:104 39.2329 
20 *179:104 *179:112 45.8671 
21 *179:112 *179:118 22.8714 
22 *179:118 *494:DIODE 40.0507 
23 *179:118 *179:129 2.96214 
24 *179:129 *2295:A1 47.57 
25 *179:129 *179:142 24.0907 
26 *179:142 *179:146 19.4329 
27 *179:146 *2296:A1 27.4536 
28 *179:146 *498:DIODE 23 
29 *179:142 *179:168 49.6993 
30 *179:168 *179:170 3.66643 
31 *179:170 *501:DIODE 40.0507 
32 *179:170 *179:181 2.25786 
33 *179:181 *2297:A 38 
34 *179:181 *179:190 35.7114 
35 *179:190 *179:194 17.5271 
36 *179:194 *2286:A 31.7621 
37 *179:194 *477:DIODE 23 
38 *179:84 *2288:A1 23 
39 *179:82 *482:DIODE 23 
*END

*D_NET *180 0.0389953
*CONN
*I *504:DIODE I *D sky130_fd_sc_hd__diode_2
*I *2287:B I *D sky130_fd_sc_hd__nand3_2
*I *480:DIODE I *D sky130_fd_sc_hd__diode_2
*I *471:DIODE I *D sky130_fd_sc_hd__diode_2
*I *2282:B I *D sky130_fd_sc_hd__or3_1
*I *2286:B I *D sky130_fd_sc_hd__xor2_2
*I *478:DIODE I *D sky130_fd_sc_hd__diode_2
*I *2299:A1 I *D sky130_fd_sc_hd__o31ai_2
*I *2294:A I *D sky130_fd_sc_hd__inv_2
*I *493:DIODE I *D sky130_fd_sc_hd__diode_2
*I *483:DIODE I *D sky130_fd_sc_hd__diode_2
*I *2288:A2 I *D sky130_fd_sc_hd__a21o_1
*I *2374:Q O *D sky130_fd_sc_hd__dfrtp_4
*CAP
1 *504:DIODE 0
2 *2287:B 0
3 *480:DIODE 0
4 *471:DIODE 0
5 *2282:B 0
6 *2286:B 0.000220898
7 *478:DIODE 0
8 *2299:A1 6.17567e-05
9 *2294:A 4.11105e-05
10 *493:DIODE 0
11 *483:DIODE 5.48155e-05
12 *2288:A2 0
13 *2374:Q 0
14 *180:169 0.000244344
15 *180:156 0.000871513
16 *180:141 0.000692399
17 *180:134 0.0001055
18 *180:128 0.000240016
19 *180:113 0.000889687
20 *180:109 0.00342042
21 *180:107 0.00370363
22 *180:94 0.000458349
23 *180:86 0.00139383
24 *180:82 0.000276056
25 *180:67 0.000276719
26 *180:58 0.00141384
27 *180:40 0.00227324
28 *180:20 0.00141093
29 *180:6 0.00228958
30 *2294:A *413:DIODE 9.41704e-05
31 *2299:A1 *506:DIODE 9.41704e-05
32 *180:20 *214:10 0.000263527
33 *180:58 *183:33 0.00018188
34 *180:58 *183:37 0.000412532
35 *180:58 *190:114 0.000106747
36 *180:58 *191:94 2.03909e-05
37 *180:58 *194:20 0.000452085
38 *180:58 *194:41 0.000209215
39 *180:58 *194:47 0.000410403
40 *180:58 *196:89 0.000211961
41 *180:58 *204:76 0.000310171
42 *180:58 *205:58 0.000558886
43 *180:58 *221:8 4.56784e-05
44 *180:67 *205:58 0.000191148
45 *180:82 *205:58 0.000237012
46 *180:86 *182:128 8.33724e-05
47 *180:94 *203:78 0.000221992
48 *180:94 *208:6 0.000232113
49 *180:107 *182:128 0.00140211
50 *180:107 *185:14 0.000103261
51 *180:107 *205:68 0
52 *180:109 *185:18 5.12328e-05
53 *180:128 *185:18 4.03039e-05
54 *180:141 *185:18 1.34995e-05
55 *180:156 *216:10 0.000359781
56 *180:169 *200:78 0.000169683
57 *414:DIODE *2294:A 9.41704e-05
58 *470:DIODE *180:134 7.6144e-05
59 *520:DIODE *180:109 0.000135037
60 *2286:A *2286:B 0.000221741
61 *2286:A *180:113 0.000136743
62 *2352:D *180:156 0.000371938
63 *2352:D *180:169 4.65096e-05
64 *2365:D *180:134 8.68016e-06
65 *2385:A *180:109 0.000157128
66 *16:16 *180:20 8.4047e-05
67 *23:20 *180:94 0.000234787
68 *36:30 *180:134 1.83667e-05
69 *42:26 *180:20 8.22421e-06
70 *53:12 *180:20 0.000123281
71 *55:20 *180:94 0.00067675
72 *71:10 *180:20 0.000195259
73 *71:10 *180:40 1.12863e-05
74 *75:32 *180:58 1.05236e-05
75 *76:6 *180:156 0.00017761
76 *80:18 *180:20 0
77 *106:88 *180:169 0.000169683
78 *115:66 *180:82 0.000135037
79 *119:24 *180:94 0.00023039
80 *130:46 *180:58 0.000178512
81 *130:50 *180:58 0.000657137
82 *134:105 *180:58 0.000317026
83 *134:105 *180:67 0.000178773
84 *134:105 *180:82 0.000225948
85 *135:16 *483:DIODE 0.000321493
86 *135:16 *180:20 0.000100318
87 *143:24 *180:40 0.000372616
88 *143:28 *180:40 0.000268845
89 *151:121 *180:169 5.36548e-05
90 *155:14 *180:134 0.000299187
91 *156:38 *180:86 0.000182585
92 *156:38 *180:107 0.000557708
93 *160:6 *2299:A1 0.000136743
94 *160:6 *180:82 0.000136743
95 *161:10 *180:156 0.000357624
96 *163:14 *180:109 0.000842823
97 *163:14 *180:128 0.000124306
98 *163:14 *180:141 0.000216685
99 *163:14 *180:156 0.000123506
100 *163:22 *180:109 0.000530415
101 *169:22 *180:109 0.000596296
102 *169:24 *180:109 1.24376e-05
103 *169:24 *180:113 0.000114683
104 *169:102 *180:20 2.71586e-05
105 *169:102 *180:40 2.64527e-05
106 *169:108 *180:20 2.40128e-05
107 *171:8 *180:113 0.000520201
108 *171:252 *180:109 0.000322276
109 *172:10 *180:40 2.17368e-05
110 *173:62 *180:107 9.83566e-06
111 *175:90 *180:20 0
112 *179:52 *180:141 9.75946e-05
113 *179:52 *180:156 6.99492e-05
114 *179:54 *180:134 0.000166513
115 *179:82 *483:DIODE 0.000188194
116 *179:84 *483:DIODE 0.000133299
117 *179:84 *180:20 5.8118e-05
118 *179:100 *180:20 5.82853e-05
119 *179:194 *180:113 0.0002263
*RES
1 *2374:Q *180:6 38 
2 *180:6 *180:20 40.4371 
3 *180:20 *2288:A2 23 
4 *180:20 *483:DIODE 26.48 
5 *180:6 *180:40 42.6564 
6 *180:40 *180:58 49.6092 
7 *180:58 *493:DIODE 38 
8 *180:58 *180:67 2.61 
9 *180:67 *2294:A 39.0979 
10 *180:67 *180:82 19.8886 
11 *180:82 *180:86 17.61 
12 *180:86 *180:94 41.0821 
13 *180:94 *2299:A1 39.5743 
14 *180:86 *180:107 37.33 
15 *180:107 *180:109 50.17 
16 *180:109 *180:113 13.5057 
17 *180:113 *478:DIODE 23 
18 *180:113 *2286:B 4.73321 
19 *180:107 *180:128 1.57429 
20 *180:128 *180:134 34.0186 
21 *180:134 *2282:B 23 
22 *180:128 *180:141 2.52714 
23 *180:141 *471:DIODE 23 
24 *180:141 *180:156 44.4171 
25 *180:156 *480:DIODE 23 
26 *180:156 *180:169 35.2614 
27 *180:169 *2287:B 23 
28 *180:82 *504:DIODE 23 
*END

*D_NET *181 0.0633015
*CONN
*I *481:DIODE I *D sky130_fd_sc_hd__diode_2
*I *2287:C I *D sky130_fd_sc_hd__nand3_2
*I *2285:A1 I *D sky130_fd_sc_hd__a21oi_1
*I *474:DIODE I *D sky130_fd_sc_hd__diode_2
*I *2299:A3 I *D sky130_fd_sc_hd__o31ai_2
*I *506:DIODE I *D sky130_fd_sc_hd__diode_2
*I *2297:C I *D sky130_fd_sc_hd__or3_1
*I *503:DIODE I *D sky130_fd_sc_hd__diode_2
*I *2292:A2 I *D sky130_fd_sc_hd__o21ai_4
*I *490:DIODE I *D sky130_fd_sc_hd__diode_2
*I *484:DIODE I *D sky130_fd_sc_hd__diode_2
*I *2288:B1 I *D sky130_fd_sc_hd__a21o_1
*I *497:DIODE I *D sky130_fd_sc_hd__diode_2
*I *2295:C1 I *D sky130_fd_sc_hd__a211o_1
*I *2375:Q O *D sky130_fd_sc_hd__dfrtp_4
*CAP
1 *481:DIODE 0
2 *2287:C 9.00015e-05
3 *2285:A1 0
4 *474:DIODE 5.77608e-05
5 *2299:A3 0
6 *506:DIODE 0.000263913
7 *2297:C 0
8 *503:DIODE 0.000208508
9 *2292:A2 5.05949e-05
10 *490:DIODE 4.45235e-05
11 *484:DIODE 0
12 *2288:B1 9.87406e-05
13 *497:DIODE 0
14 *2295:C1 0
15 *2375:Q 3.57483e-05
16 *181:194 0.00120567
17 *181:177 0.0011806
18 *181:166 0.000327092
19 *181:150 0.000565652
20 *181:144 0.000506137
21 *181:142 0.00243249
22 *181:140 0.00243249
23 *181:133 0.000485173
24 *181:118 0.00109426
25 *181:98 9.51184e-05
26 *181:78 0.000728494
27 *181:72 0.00140055
28 *181:56 0.000352583
29 *181:46 0.000696491
30 *181:38 0.00124532
31 *181:32 0.00206577
32 *181:30 0.000535149
33 *181:26 0.0013469
34 *181:20 0.00154988
35 *181:12 0.00110735
36 *181:10 0.0027022
37 *181:8 0.00237575
38 *490:DIODE *182:36 2.02872e-05
39 *490:DIODE *182:44 5.3304e-05
40 *490:DIODE *219:22 9.41704e-05
41 *503:DIODE *182:80 0.000112344
42 *506:DIODE *2299:A2 9.58714e-05
43 *2288:B1 *214:10 3.63676e-05
44 *2292:A2 *182:36 7.27182e-05
45 *2292:A2 *219:16 0
46 *2292:A2 *219:22 0.00014196
47 *181:10 *185:84 0.00142692
48 *181:20 *182:80 0.000481386
49 *181:20 *195:48 9.65021e-05
50 *181:26 *209:22 0.000295187
51 *181:26 *218:76 0.000155531
52 *181:38 *2262:A 0.000144501
53 *181:38 *196:44 0.000360771
54 *181:38 *198:28 2.64616e-05
55 *181:38 *198:30 0.000119293
56 *181:38 *198:36 0.000426697
57 *181:56 *2295:B1 0.000188927
58 *181:56 *218:10 8.29264e-05
59 *181:72 *198:20 0.000658449
60 *181:72 *199:136 0.00121682
61 *181:78 *191:98 2.18409e-05
62 *181:78 *199:136 0.000257079
63 *181:78 *214:10 0.000132883
64 *181:118 *182:80 0.00021234
65 *181:133 *2297:B 0.000109447
66 *181:133 *182:80 0.000387879
67 *181:133 *213:58 8.65972e-05
68 *181:142 *320:DIODE 5.79559e-05
69 *181:142 *2218:A 0.000220715
70 *181:142 *203:78 0.000207843
71 *181:142 *206:52 0.00143636
72 *181:142 *209:22 8.52481e-05
73 *181:142 *209:24 0.000128152
74 *181:166 *182:128 4.04637e-05
75 *181:177 *182:128 2.41047e-05
76 *181:194 *2263:A 3.2327e-05
77 *378:DIODE *181:72 1.56665e-05
78 *378:DIODE *181:78 0.000185434
79 *2235:B1 *181:10 9.8026e-05
80 *2263:B *181:194 2.93431e-05
81 *2263:C *181:194 8.48502e-06
82 *2299:A1 *506:DIODE 9.41704e-05
83 *2299:B1 *506:DIODE 5.62351e-05
84 *2299:B1 *181:150 6.53382e-05
85 *2375:D *181:8 2.93845e-05
86 *2386:A *181:194 6.17437e-06
87 *8:15 *181:10 4.89546e-05
88 *18:10 *181:10 0
89 *18:10 *181:133 8.65972e-05
90 *23:14 *474:DIODE 0.000181125
91 *26:10 *181:46 0.000161121
92 *28:28 *181:10 0.000132836
93 *36:26 *181:166 0.000112245
94 *47:14 *474:DIODE 0.000178517
95 *55:20 *181:142 0.00219763
96 *64:10 *181:142 5.3304e-05
97 *70:10 *181:26 0.00202277
98 *75:32 *181:26 9.91442e-06
99 *90:20 *181:10 0.000274243
100 *90:20 *181:12 0.000109
101 *99:21 *181:26 0.00206804
102 *103:14 *181:150 0.000184291
103 *103:14 *181:166 0.000500354
104 *103:14 *181:177 0.000110922
105 *103:14 *181:194 0.000289494
106 *103:34 *181:194 0.00011332
107 *105:10 *181:30 0.000172441
108 *105:10 *181:32 0.000611938
109 *105:10 *181:38 6.16531e-05
110 *106:30 *181:20 0.000999675
111 *106:30 *181:133 0.000201318
112 *106:34 *181:26 3.32202e-05
113 *119:40 *181:32 0
114 *120:20 *181:46 0.000350485
115 *120:20 *181:56 0.000273275
116 *122:10 *181:56 0
117 *122:14 *181:56 0.000191255
118 *126:22 *181:38 0.00245084
119 *126:22 *181:72 0.00250282
120 *131:44 *181:10 0.00290025
121 *131:44 *181:12 0.000933824
122 *131:44 *181:20 0.000114084
123 *132:28 *181:150 0.000180849
124 *135:10 *181:78 0.000392374
125 *135:16 *2288:B1 0.000186041
126 *141:77 *181:194 1.56446e-05
127 *143:14 *181:26 0.000136738
128 *150:10 *181:194 7.43209e-05
129 *152:16 *2287:C 4.18667e-05
130 *152:16 *181:194 0.000311537
131 *155:14 *181:177 4.6318e-06
132 *155:14 *181:194 0.000428466
133 *158:24 *181:46 0.000163352
134 *160:6 *506:DIODE 7.03636e-05
135 *160:6 *181:150 0.000472412
136 *163:10 *2287:C 5.56279e-05
137 *164:10 *2288:B1 1.13812e-05
138 *164:10 *181:78 0.000113235
139 *168:8 *181:133 7.17698e-05
140 *169:202 *181:10 0
141 *169:228 *181:10 0
142 *172:88 *181:10 0.000315519
143 *172:88 *181:12 0.000925963
144 *172:88 *181:20 0.000116366
145 *177:108 *181:194 0.000202116
146 *178:74 *181:150 0.000184291
147 *178:74 *181:166 0.000388502
148 *179:100 *2288:B1 0.000188526
*RES
1 *2375:Q *181:8 38.6214 
2 *181:8 *181:10 59.305 
3 *181:10 *181:12 12.8221 
4 *181:12 *181:20 42.6564 
5 *181:20 *181:26 49.8207 
6 *181:26 *181:30 17.61 
7 *181:30 *181:32 8.59643 
8 *181:32 *181:38 43.1507 
9 *181:38 *181:46 36.2143 
10 *181:46 *181:56 37.3121 
11 *181:56 *2295:C1 23 
12 *181:46 *497:DIODE 23 
13 *181:32 *181:72 43.7514 
14 *181:72 *181:78 30.7014 
15 *181:78 *2288:B1 41.2521 
16 *181:78 *484:DIODE 38 
17 *181:30 *181:98 15 
18 *181:98 *490:DIODE 24.0979 
19 *181:98 *2292:A2 25.0714 
20 *181:12 *181:118 19.9093 
21 *181:118 *503:DIODE 25.5271 
22 *181:118 *181:133 40.3986 
23 *181:133 *2297:C 23 
24 *181:10 *181:140 15 
25 *181:140 *181:142 47.7879 
26 *181:142 *181:144 15 
27 *181:144 *181:150 22.9957 
28 *181:150 *506:DIODE 27.4536 
29 *181:150 *2299:A3 23 
30 *181:144 *181:166 6.83571 
31 *181:166 *474:DIODE 40.0507 
32 *181:166 *181:177 1.55357 
33 *181:177 *2285:A1 38 
34 *181:177 *181:194 39.0907 
35 *181:194 *2287:C 25.0714 
36 *181:194 *481:DIODE 23 
*END

*D_NET *182 0.0513731
*CONN
*I *472:DIODE I *D sky130_fd_sc_hd__diode_2
*I *2282:C I *D sky130_fd_sc_hd__or3_1
*I *487:DIODE I *D sky130_fd_sc_hd__diode_2
*I *2291:A I *D sky130_fd_sc_hd__xnor2_1
*I *505:DIODE I *D sky130_fd_sc_hd__diode_2
*I *2299:A2 I *D sky130_fd_sc_hd__o31ai_2
*I *2297:B I *D sky130_fd_sc_hd__or3_1
*I *502:DIODE I *D sky130_fd_sc_hd__diode_2
*I *489:DIODE I *D sky130_fd_sc_hd__diode_2
*I *2292:A1 I *D sky130_fd_sc_hd__o21ai_4
*I *496:DIODE I *D sky130_fd_sc_hd__diode_2
*I *2295:B1 I *D sky130_fd_sc_hd__a211o_1
*I *2376:Q O *D sky130_fd_sc_hd__dfrtp_4
*CAP
1 *472:DIODE 0.000391758
2 *2282:C 0
3 *487:DIODE 0
4 *2291:A 0.000180588
5 *505:DIODE 4.99221e-05
6 *2299:A2 0.000382609
7 *2297:B 0.0003559
8 *502:DIODE 0
9 *489:DIODE 9.0489e-05
10 *2292:A1 0
11 *496:DIODE 0
12 *2295:B1 0.000149294
13 *2376:Q 0.000451446
14 *182:136 0.00209776
15 *182:130 0.00191717
16 *182:128 0.00149453
17 *182:113 0.0014097
18 *182:80 0.00185756
19 *182:46 0.00158135
20 *182:44 0.00174986
21 *182:36 0.000680454
22 *182:32 0.00186833
23 *182:26 0.00291684
24 *182:24 0.000947512
25 *182:18 0.00168419
26 *182:14 0.000897351
27 *182:10 0.000737724
28 *472:DIODE *185:78 0
29 *472:DIODE *202:92 8.62876e-05
30 *472:DIODE *202:96 0.000390685
31 *489:DIODE *491:DIODE 2.64616e-05
32 *489:DIODE *2292:B1 9.41704e-05
33 *489:DIODE *219:22 3.34247e-05
34 *2295:B1 *218:10 0.000151306
35 *2299:A2 *203:74 0.000269925
36 *2299:A2 *208:32 0.000636503
37 *182:10 *221:12 0.00035806
38 *182:14 *204:57 4.66208e-05
39 *182:14 *204:63 0.000394192
40 *182:18 *2277:A 2.64616e-05
41 *182:18 *203:74 3.41785e-05
42 *182:18 *204:63 0.000295858
43 *182:24 *2180:D 0.000138444
44 *182:24 *187:20 0.000944898
45 *182:24 *191:82 5.78554e-05
46 *182:24 *191:90 6.72178e-06
47 *182:24 *195:90 0.000323341
48 *182:24 *208:32 0.00039125
49 *182:32 *198:20 0.000316021
50 *182:32 *198:68 0.00215421
51 *182:36 *2292:B1 0.000229526
52 *182:36 *219:16 4.00259e-06
53 *182:36 *219:22 8.36128e-05
54 *182:44 *198:28 3.47781e-05
55 *182:44 *219:22 2.02872e-05
56 *182:46 *425:DIODE 0.000146822
57 *182:46 *195:72 4.44329e-05
58 *182:46 *198:20 5.3304e-05
59 *182:80 *195:48 9.41704e-05
60 *182:80 *198:68 0.000236321
61 *182:128 *185:14 0
62 *182:128 *185:78 0
63 *182:136 *456:DIODE 0.000136563
64 *182:136 *202:92 0.00168446
65 *182:136 *203:103 4.67488e-05
66 *490:DIODE *182:36 2.02872e-05
67 *490:DIODE *182:44 5.3304e-05
68 *503:DIODE *182:80 0.000112344
69 *506:DIODE *2299:A2 9.58714e-05
70 *2188:D *182:44 0.000136486
71 *2200:A_N *182:80 4.03039e-05
72 *2227:A *2295:B1 2.93431e-05
73 *2227:A *182:46 1.59071e-05
74 *2227:B *182:46 5.73288e-05
75 *2227:C *182:46 8.83597e-05
76 *2275:B *182:136 2.47702e-05
77 *2291:B *2291:A 0.000309734
78 *2291:B *182:136 0.000168687
79 *2292:A2 *182:36 7.27182e-05
80 *2295:A1 *2295:B1 5.90675e-06
81 *2295:A1 *182:46 2.00404e-05
82 *2376:RESET_B *182:10 2.86086e-05
83 *2376:RESET_B *182:80 5.3304e-05
84 *19:6 *2291:A 0.000222785
85 *19:6 *182:136 0.00175858
86 *36:26 *182:113 0.000101418
87 *56:18 *182:80 1.09917e-05
88 *70:10 *182:44 0.000599652
89 *87:10 *182:32 0.000751179
90 *87:10 *182:80 0.000203152
91 *92:8 *2299:A2 3.20828e-05
92 *92:8 *182:24 7.96802e-05
93 *96:20 *182:32 0.000107782
94 *99:21 *182:44 0.000294528
95 *106:30 *182:80 0.000141127
96 *107:14 *182:80 0.000394186
97 *108:6 *182:80 9.32783e-05
98 *122:14 *2295:B1 7.12636e-05
99 *122:37 *182:44 6.84517e-05
100 *126:22 *182:46 0.00241077
101 *132:28 *505:DIODE 5.3304e-05
102 *132:28 *182:113 0.000266939
103 *132:28 *182:128 1.02029e-05
104 *134:103 *182:18 0.000135037
105 *144:16 *182:136 6.68919e-05
106 *146:20 *182:24 0.0010643
107 *149:8 *182:46 5.67058e-05
108 *155:14 *472:DIODE 0.000161121
109 *155:14 *182:128 0.00128816
110 *156:38 *182:128 1.49079e-05
111 *156:57 *182:113 5.91105e-05
112 *159:6 *182:18 0.000306144
113 *160:6 *2299:A2 9.41704e-05
114 *163:24 *182:136 0.000614817
115 *166:10 *182:32 0
116 *169:44 *182:32 0
117 *169:158 *182:10 4.21494e-05
118 *174:16 *182:32 0.000176963
119 *174:126 *182:32 0.000129454
120 *177:136 *472:DIODE 2.24973e-05
121 *177:136 *182:136 9.84794e-05
122 *178:74 *182:113 0.000603954
123 *178:74 *182:128 0.00061936
124 *180:86 *182:128 8.33724e-05
125 *180:107 *182:128 0.00140211
126 *181:20 *182:80 0.000481386
127 *181:56 *2295:B1 0.000188927
128 *181:118 *182:80 0.00021234
129 *181:133 *2297:B 0.000109447
130 *181:133 *182:80 0.000387879
131 *181:166 *182:128 4.04637e-05
132 *181:177 *182:128 2.41047e-05
*RES
1 *2376:Q *182:10 47.5493 
2 *182:10 *182:14 20.3857 
3 *182:14 *182:18 22.2914 
4 *182:18 *182:24 41.0586 
5 *182:24 *182:26 15 
6 *182:26 *182:32 49.8 
7 *182:32 *182:36 7.78857 
8 *182:36 *182:44 39.3421 
9 *182:44 *182:46 31.1129 
10 *182:46 *2295:B1 27.9507 
11 *182:46 *496:DIODE 23 
12 *182:36 *2292:A1 23 
13 *182:32 *489:DIODE 25.0507 
14 *182:26 *182:80 46.5686 
15 *182:80 *502:DIODE 23 
16 *182:80 *2297:B 27.8057 
17 *182:18 *2299:A2 48.8129 
18 *182:14 *182:113 23.2443 
19 *182:113 *505:DIODE 38.6214 
20 *182:113 *182:128 29.7871 
21 *182:128 *182:130 15 
22 *182:130 *182:136 47.8293 
23 *182:136 *2291:A 27.8057 
24 *182:136 *487:DIODE 23 
25 *182:130 *2282:C 23 
26 *182:128 *472:DIODE 44.6907 
*END

*D_NET *183 0.0381599
*CONN
*I *260:DIODE I *D sky130_fd_sc_hd__diode_2
*I *2190:A_N I *D sky130_fd_sc_hd__and2b_1
*I *265:DIODE I *D sky130_fd_sc_hd__diode_2
*I *2192:A I *D sky130_fd_sc_hd__or2_1
*I *263:DIODE I *D sky130_fd_sc_hd__diode_2
*I *2199:A1 I *D sky130_fd_sc_hd__a31o_1
*I *276:DIODE I *D sky130_fd_sc_hd__diode_2
*I *272:DIODE I *D sky130_fd_sc_hd__diode_2
*I *2197:A I *D sky130_fd_sc_hd__and4_1
*I *223:DIODE I *D sky130_fd_sc_hd__diode_2
*I *2178:B I *D sky130_fd_sc_hd__or4b_2
*I *2193:A I *D sky130_fd_sc_hd__nand2_2
*I *2341:Q O *D sky130_fd_sc_hd__dfrtp_4
*CAP
1 *260:DIODE 5.4172e-05
2 *2190:A_N 0
3 *265:DIODE 0.0001196
4 *2192:A 0
5 *263:DIODE 0.000153579
6 *2199:A1 0
7 *276:DIODE 0
8 *272:DIODE 0
9 *2197:A 0
10 *223:DIODE 0
11 *2178:B 0.000182376
12 *2193:A 0
13 *2341:Q 0
14 *183:152 5.4172e-05
15 *183:150 0.00292687
16 *183:125 0.000189957
17 *183:113 0.000239087
18 *183:101 0.000536417
19 *183:80 7.91116e-05
20 *183:67 0.000488691
21 *183:63 0.00140111
22 *183:57 0.00134127
23 *183:51 0.00192711
24 *183:43 0.0022631
25 *183:37 0.00110489
26 *183:33 0.00107943
27 *183:24 0.000276596
28 *183:12 0.000867955
29 *183:6 0.0034209
30 *263:DIODE *2192:B 1.83444e-05
31 *2178:B *2178:C 0.000278295
32 *183:12 *191:129 1.86268e-05
33 *183:12 *196:14 0.000161316
34 *183:24 *190:44 6.01751e-05
35 *183:33 *191:94 0.000171788
36 *183:37 *191:94 0.00174341
37 *183:37 *194:47 0.000821616
38 *183:37 *208:38 0
39 *183:43 *2192:B 3.26241e-05
40 *183:43 *190:101 1.32314e-05
41 *183:51 *379:DIODE 0.0002263
42 *183:51 *190:88 2.29192e-05
43 *183:51 *190:101 8.4047e-05
44 *183:51 *208:38 2.24048e-05
45 *183:63 *194:75 0.00267011
46 *183:63 *194:95 6.87347e-05
47 *183:67 *2178:C 0.000286691
48 *183:67 *194:75 1.73995e-05
49 *183:101 *2199:B1 0.000209639
50 *183:101 *194:61 0.000287137
51 *183:101 *194:73 1.13812e-05
52 *183:101 *208:38 0.000176011
53 *183:101 *208:40 4.9858e-05
54 *183:113 *194:73 9.41704e-05
55 *183:113 *205:22 0.000341187
56 *183:113 *205:28 5.3304e-05
57 *183:125 *2192:B 1.57556e-05
58 *183:150 *191:129 6.85236e-05
59 *183:150 *192:84 0.000196064
60 *183:150 *196:14 0.000283051
61 *183:150 *196:70 0.000702857
62 *183:150 *203:66 0.00029321
63 *183:150 *216:10 0.00257832
64 *458:DIODE *183:80 0
65 *580:DIODE *183:63 5.58003e-05
66 *2341:RESET_B *183:12 2.11157e-05
67 *16:8 *183:12 2.97113e-05
68 *16:8 *183:150 0.000619153
69 *17:24 *265:DIODE 0.000137525
70 *20:10 *183:24 5.79438e-05
71 *34:12 *183:113 0.000274078
72 *40:18 *183:63 0.000168997
73 *42:20 *183:150 0.000180981
74 *51:22 *183:113 4.92229e-05
75 *100:149 *260:DIODE 0.000145004
76 *102:8 *263:DIODE 0.000137533
77 *103:8 *183:12 0.000411278
78 *103:8 *183:24 0.00014915
79 *103:14 *183:150 0.000153123
80 *103:34 *183:150 0.000908458
81 *107:10 *183:101 0
82 *119:40 *183:57 0.00015002
83 *119:40 *183:63 1.0092e-05
84 *126:22 *183:51 0.000710737
85 *126:22 *183:57 3.16784e-05
86 *129:39 *183:150 0
87 *143:24 *183:37 0.000432179
88 *150:29 *183:150 0
89 *151:90 *183:12 9.36891e-05
90 *151:94 *183:51 0
91 *151:94 *183:101 0
92 *161:10 *183:150 0.000113733
93 *162:8 *183:57 0.000160072
94 *162:8 *183:63 0.000139882
95 *164:14 *263:DIODE 3.91338e-05
96 *164:14 *183:43 9.03312e-05
97 *169:158 *183:150 0
98 *173:45 *183:24 9.41704e-05
99 *174:41 *183:63 0.000230726
100 *174:54 *183:63 0.000985025
101 *180:58 *183:33 0.00018188
102 *180:58 *183:37 0.000412532
*RES
1 *2341:Q *183:6 38 
2 *183:6 *183:12 24.0729 
3 *183:12 *183:24 34.495 
4 *183:24 *2193:A 23 
5 *183:12 *183:33 17.61 
6 *183:33 *183:37 40.8514 
7 *183:37 *183:43 18.9771 
8 *183:43 *183:51 41.4936 
9 *183:51 *183:57 18.3557 
10 *183:57 *183:63 49.8621 
11 *183:63 *183:67 3.97714 
12 *183:67 *2178:B 26.0036 
13 *183:67 *183:80 31.2014 
14 *183:80 *223:DIODE 23 
15 *183:57 *2197:A 38 
16 *183:51 *272:DIODE 23 
17 *183:43 *183:101 21.1314 
18 *183:101 *183:113 36.9807 
19 *183:113 *276:DIODE 23 
20 *183:101 *2199:A1 23 
21 *183:37 *183:125 0.621429 
22 *183:125 *263:DIODE 26.0243 
23 *183:125 *2192:A 23 
24 *183:33 *265:DIODE 39.5743 
25 *183:6 *183:150 73.0386 
26 *183:150 *183:152 15 
27 *183:152 *2190:A_N 23 
28 *183:152 *260:DIODE 24.5743 
*END

*D_NET *184 0.054125
*CONN
*I *2230:A I *D sky130_fd_sc_hd__and4_1
*I *2226:A I *D sky130_fd_sc_hd__nand3_2
*I *339:DIODE I *D sky130_fd_sc_hd__diode_2
*I *348:DIODE I *D sky130_fd_sc_hd__diode_2
*I *2225:A1 I *D sky130_fd_sc_hd__a21o_1
*I *336:DIODE I *D sky130_fd_sc_hd__diode_2
*I *334:DIODE I *D sky130_fd_sc_hd__diode_2
*I *2224:A I *D sky130_fd_sc_hd__xor2_2
*I *252:DIODE I *D sky130_fd_sc_hd__diode_2
*I *2187:A I *D sky130_fd_sc_hd__or4b_2
*I *2231:A I *D sky130_fd_sc_hd__and4_1
*I *352:DIODE I *D sky130_fd_sc_hd__diode_2
*I *2351:Q O *D sky130_fd_sc_hd__dfrtp_4
*CAP
1 *2230:A 0
2 *2226:A 0.000107376
3 *339:DIODE 0
4 *348:DIODE 0
5 *2225:A1 0
6 *336:DIODE 0
7 *334:DIODE 0
8 *2224:A 0
9 *252:DIODE 0
10 *2187:A 0
11 *2231:A 0
12 *352:DIODE 2.59708e-05
13 *2351:Q 0
14 *184:161 0.000919165
15 *184:155 0.00106997
16 *184:144 0.000465148
17 *184:140 0.00159542
18 *184:129 9.83373e-05
19 *184:121 0.00162986
20 *184:114 0.00128824
21 *184:99 0.000637598
22 *184:84 0.000335249
23 *184:68 0.000301811
24 *184:60 0.000467969
25 *184:58 0.000800782
26 *184:56 0.000936973
27 *184:54 0.00415467
28 *184:52 0.00415467
29 *184:38 0.000117091
30 *184:34 0.000930611
31 *184:26 0.00217068
32 *184:20 0.0022724
33 *184:16 0.00146329
34 *184:6 0.00166725
35 *2226:A *185:44 3.91386e-05
36 *2226:A *216:14 0.000212168
37 *184:16 *201:71 0.000696494
38 *184:20 *201:71 0.00114482
39 *184:20 *211:70 0.00178583
40 *184:26 *193:72 0.000343906
41 *184:26 *210:28 0.000235781
42 *184:34 *185:124 4.05481e-05
43 *184:34 *187:86 0.000111648
44 *184:54 *186:22 1.35135e-05
45 *184:54 *186:36 0.000170933
46 *184:54 *189:52 0.00024456
47 *184:54 *195:38 0.000187765
48 *184:54 *195:48 0.000237368
49 *184:54 *195:64 0
50 *184:54 *195:72 0
51 *184:54 *206:12 0.000277814
52 *184:54 *209:39 0
53 *184:54 *209:57 0
54 *184:54 *213:30 2.04554e-05
55 *184:54 *213:44 0.000605473
56 *184:54 *213:116 0.00164656
57 *184:68 *198:36 0
58 *184:84 *196:44 0.000314329
59 *184:114 *206:103 6.00097e-05
60 *184:140 *204:18 3.7473e-07
61 *184:144 *2270:A 0.000139352
62 *184:144 *195:132 0.000649885
63 *184:144 *211:66 0.000817617
64 *184:155 *195:132 0.000212162
65 *184:155 *211:66 0.000269036
66 *184:161 *216:14 9.75779e-05
67 *238:DIODE *184:114 2.26406e-05
68 *2182:A *184:114 4.36457e-05
69 *2225:A2 *184:129 5.3304e-05
70 *2226:C *2226:A 0.000396695
71 *2226:C *184:161 9.5877e-05
72 *18:10 *184:26 0
73 *21:32 *184:16 8.89573e-05
74 *29:10 *184:54 0.000879469
75 *56:10 *184:140 0.000139354
76 *58:18 *184:155 3.82956e-05
77 *58:18 *184:161 0.000381363
78 *62:8 *184:16 0.000206394
79 *62:8 *184:114 4.89731e-05
80 *67:26 *184:161 0.000277831
81 *71:18 *184:54 0.000741939
82 *71:18 *184:84 0
83 *71:18 *184:99 0
84 *74:10 *184:68 6.68793e-05
85 *75:22 *184:54 0
86 *94:18 *184:16 1.19519e-05
87 *95:12 *184:114 8.23478e-05
88 *95:42 *184:114 0.000618901
89 *103:34 *184:129 8.72173e-05
90 *106:88 *184:140 0.000274627
91 *111:10 *184:155 0.000215791
92 *111:10 *184:161 0.0025357
93 *112:12 *184:114 0.000908863
94 *112:12 *184:121 0.000228903
95 *112:12 *184:129 2.64616e-05
96 *112:12 *184:140 0.00109848
97 *112:24 *352:DIODE 5.79559e-05
98 *112:24 *184:38 0.000137361
99 *113:32 *184:54 0.000339893
100 *115:12 *184:26 0.000149235
101 *116:78 *184:34 0.000113777
102 *119:44 *184:99 3.2277e-05
103 *120:14 *184:54 0
104 *120:16 *184:84 4.96264e-05
105 *121:20 *184:58 0.00038734
106 *121:20 *184:60 0.000212168
107 *121:20 *184:68 0.000268129
108 *121:20 *184:99 0.000390102
109 *122:31 *184:99 5.50049e-05
110 *122:37 *184:99 0.000416976
111 *126:8 *2226:A 9.45591e-05
112 *129:12 *184:34 0.000867974
113 *134:113 *184:161 0.00168189
114 *134:126 *184:155 0.000127272
115 *134:126 *184:161 9.26098e-05
116 *134:169 *184:16 1.00156e-05
117 *134:175 *184:16 0.000179215
118 *134:175 *184:114 0.000121258
119 *141:114 *184:114 0
120 *149:10 *184:99 0.00021356
121 *151:16 *184:144 1.56762e-05
122 *151:16 *184:155 0.000110389
123 *151:22 *184:140 1.01436e-05
124 *153:30 *184:54 0.000234085
125 *172:158 *184:54 0
126 *174:28 *184:84 0
*RES
1 *2351:Q *184:6 38 
2 *184:6 *184:16 41.5793 
3 *184:16 *184:20 38.9664 
4 *184:20 *184:26 38.8214 
5 *184:26 *184:34 42.6564 
6 *184:34 *184:38 16.5743 
7 *184:38 *352:DIODE 23.6214 
8 *184:38 *2231:A 23 
9 *184:20 *184:52 15 
10 *184:52 *184:54 87.1243 
11 *184:54 *184:56 15 
12 *184:56 *184:58 4.43286 
13 *184:58 *184:60 2.52714 
14 *184:60 *184:68 34.9093 
15 *184:68 *2187:A 23 
16 *184:60 *252:DIODE 23 
17 *184:58 *184:84 36.4836 
18 *184:84 *2224:A 23 
19 *184:56 *184:99 41.7864 
20 *184:99 *334:DIODE 23 
21 *184:6 *184:114 36.6257 
22 *184:114 *336:DIODE 23 
23 *184:114 *184:121 2.52714 
24 *184:121 *184:129 31.8229 
25 *184:129 *2225:A1 23 
26 *184:121 *184:140 40.23 
27 *184:140 *184:144 24.1971 
28 *184:144 *348:DIODE 23 
29 *184:144 *184:155 22.8714 
30 *184:155 *184:161 49.6964 
31 *184:161 *339:DIODE 23 
32 *184:161 *2226:A 27.93 
33 *184:155 *2230:A 38 
*END

*D_NET *185 0.0534769
*CONN
*I *2225:B1 I *D sky130_fd_sc_hd__a21o_1
*I *338:DIODE I *D sky130_fd_sc_hd__diode_2
*I *353:DIODE I *D sky130_fd_sc_hd__diode_2
*I *2231:B I *D sky130_fd_sc_hd__and4_1
*I *255:DIODE I *D sky130_fd_sc_hd__diode_2
*I *2187:D_N I *D sky130_fd_sc_hd__or4b_2
*I *2230:B I *D sky130_fd_sc_hd__and4_1
*I *349:DIODE I *D sky130_fd_sc_hd__diode_2
*I *340:DIODE I *D sky130_fd_sc_hd__diode_2
*I *2226:B I *D sky130_fd_sc_hd__nand3_2
*I *2352:Q O *D sky130_fd_sc_hd__dfrtp_4
*CAP
1 *2225:B1 9.80365e-05
2 *338:DIODE 0
3 *353:DIODE 0
4 *2231:B 0
5 *255:DIODE 0
6 *2187:D_N 6.67614e-05
7 *2230:B 0.000521585
8 *349:DIODE 0
9 *340:DIODE 0
10 *2226:B 0
11 *2352:Q 0.000514531
12 *185:124 0.000339135
13 *185:114 0.00120773
14 *185:86 6.67614e-05
15 *185:84 0.00320981
16 *185:82 0.00320981
17 *185:80 0.00203887
18 *185:78 0.00223219
19 *185:56 0.000563847
20 *185:44 0.000411092
21 *185:30 0.00079987
22 *185:28 0.00120328
23 *185:20 0.000856764
24 *185:18 0.00188862
25 *185:14 0.00336702
26 *2187:D_N *2187:B 6.70361e-05
27 *2230:B *2230:C 5.94125e-05
28 *2230:B *186:117 0.000207498
29 *2230:B *195:140 0.000137651
30 *185:14 *205:68 8.96745e-05
31 *185:28 *186:117 0.000566544
32 *185:30 *216:14 8.11489e-05
33 *185:56 *186:117 7.6144e-05
34 *185:78 *202:92 6.713e-06
35 *185:78 *203:116 0
36 *185:78 *205:68 0.000318737
37 *185:78 *205:90 0.000677578
38 *185:80 *209:107 0.000502786
39 *185:84 *188:12 0.00234085
40 *185:84 *188:18 0.000400666
41 *185:84 *188:102 0.000109797
42 *185:84 *204:112 0.000110922
43 *185:114 *355:DIODE 0.000176248
44 *185:114 *188:110 0.000137533
45 *185:114 *193:72 0
46 *185:114 *210:28 5.54209e-05
47 *185:124 *355:DIODE 0.000141355
48 *185:124 *187:86 9.41704e-05
49 *472:DIODE *185:78 0
50 *573:DIODE *185:30 9.41704e-05
51 *578:DIODE *185:84 0.000156487
52 *2225:A2 *2225:B1 5.35107e-05
53 *2226:A *185:44 3.91386e-05
54 *2226:C *185:44 2.93431e-05
55 *2230:D *2230:B 3.59414e-05
56 *2330:A *185:84 6.16531e-05
57 *2352:RESET_B *185:14 0.00021677
58 *2358:CLK *185:114 0.000139352
59 *8:15 *185:84 4.89546e-05
60 *10:10 *185:44 0.00016252
61 *18:10 *185:114 0.000203075
62 *28:20 *185:28 0.000333176
63 *28:40 *185:114 4.70953e-05
64 *45:10 *185:44 5.31444e-05
65 *67:16 *185:124 0
66 *77:10 *185:28 1.17049e-05
67 *90:20 *185:84 0.000623105
68 *99:6 *2187:D_N 2.18286e-05
69 *105:16 *185:84 7.31043e-06
70 *105:24 *185:84 0.00108272
71 *109:22 *2230:B 0.000163873
72 *109:22 *185:28 0.00213542
73 *109:22 *185:56 4.08641e-05
74 *112:12 *2225:B1 0.000341678
75 *112:12 *185:80 0.00409352
76 *112:12 *185:114 3.88766e-05
77 *112:24 *185:124 5.3304e-05
78 *115:108 *185:124 5.3304e-05
79 *116:78 *185:124 0.000240873
80 *119:97 *185:78 2.5597e-05
81 *119:115 *2230:B 0.000226306
82 *119:163 *185:78 0.00022438
83 *120:16 *185:84 0.000925838
84 *122:57 *185:84 0.000181657
85 *125:6 *2225:B1 0.000267167
86 *125:6 *185:80 0.00182381
87 *126:8 *185:30 0.00052282
88 *126:8 *185:44 9.94628e-05
89 *129:12 *185:114 0.000274893
90 *129:12 *185:124 7.79323e-05
91 *138:32 *185:114 0.000302325
92 *144:22 *185:14 0.000293355
93 *144:22 *185:78 0.000179712
94 *152:8 *185:28 0.00019747
95 *165:10 *2187:D_N 9.5877e-05
96 *170:92 *185:28 0.000526563
97 *172:64 *185:84 0.000374684
98 *172:88 *185:84 0.00168174
99 *174:26 *185:84 0.00107919
100 *174:28 *185:84 0.000161121
101 *174:92 *185:84 0.00103042
102 *176:102 *185:84 0.00010574
103 *176:102 *185:114 0.000141954
104 *177:136 *185:78 6.33511e-05
105 *177:170 *2230:B 1.87502e-05
106 *179:52 *185:18 0.00136273
107 *180:107 *185:14 0.000103261
108 *180:109 *185:18 5.12328e-05
109 *180:128 *185:18 4.03039e-05
110 *180:141 *185:18 1.34995e-05
111 *181:10 *185:84 0.00142692
112 *182:128 *185:14 0
113 *182:128 *185:78 0
114 *184:34 *185:124 4.05481e-05
*RES
1 *2352:Q *185:14 47.7771 
2 *185:14 *185:18 39.4429 
3 *185:18 *185:20 15 
4 *185:20 *185:28 45.4914 
5 *185:28 *185:30 7.76786 
6 *185:30 *185:44 36.6493 
7 *185:44 *2226:B 23 
8 *185:30 *340:DIODE 23 
9 *185:20 *185:56 1.20143 
10 *185:56 *349:DIODE 38 
11 *185:56 *2230:B 47.6321 
12 *185:14 *185:78 36.6257 
13 *185:78 *185:80 45.4057 
14 *185:80 *185:82 15 
15 *185:82 *185:84 98.745 
16 *185:84 *185:86 15 
17 *185:86 *2187:D_N 24.5743 
18 *185:86 *255:DIODE 23 
19 *185:80 *185:114 48.2079 
20 *185:114 *185:124 37.8921 
21 *185:124 *2231:B 23 
22 *185:114 *353:DIODE 23 
23 *185:78 *338:DIODE 23 
24 *185:78 *2225:B1 27.4536 
*END

*D_NET *186 0.044546
*CONN
*I *2229:A I *D sky130_fd_sc_hd__xnor2_1
*I *2230:C I *D sky130_fd_sc_hd__and4_1
*I *350:DIODE I *D sky130_fd_sc_hd__diode_2
*I *346:DIODE I *D sky130_fd_sc_hd__diode_2
*I *354:DIODE I *D sky130_fd_sc_hd__diode_2
*I *2231:C I *D sky130_fd_sc_hd__and4_1
*I *253:DIODE I *D sky130_fd_sc_hd__diode_2
*I *2187:B I *D sky130_fd_sc_hd__or4b_2
*I *2353:Q O *D sky130_fd_sc_hd__dfrtp_4
*CAP
1 *2229:A 0
2 *2230:C 0.000226743
3 *350:DIODE 4.99221e-05
4 *346:DIODE 0
5 *354:DIODE 6.04087e-05
6 *2231:C 0.000357616
7 *253:DIODE 0
8 *2187:B 0.00037427
9 *2353:Q 0
10 *186:117 0.000905862
11 *186:113 0.000761133
12 *186:100 0.000501882
13 *186:96 0.00300946
14 *186:60 0.0020833
15 *186:58 0.00233681
16 *186:36 0.00219045
17 *186:22 0.00278579
18 *186:10 0.00342197
19 *186:4 0.00442035
20 *2187:B *187:48 0.000392072
21 *2230:C *195:140 2.32101e-05
22 *186:10 *188:18 0.000138763
23 *186:22 *188:18 0.000663223
24 *186:22 *201:54 0.000203941
25 *186:36 *196:44 0
26 *186:36 *206:12 0.000170498
27 *186:36 *213:44 0.000605873
28 *186:60 *192:140 0
29 *186:96 *2281:A 4.64025e-06
30 *186:113 *215:20 0.000161605
31 *186:117 *199:74 0.00018261
32 *186:117 *199:76 2.8936e-05
33 *186:117 *199:82 8.33604e-05
34 *2187:D_N *2187:B 6.70361e-05
35 *2230:B *2230:C 5.94125e-05
36 *2230:B *186:117 0.000207498
37 *2230:D *2230:C 0.000138607
38 *2353:CLK *186:96 4.54709e-05
39 *2353:D *186:96 2.98806e-05
40 *23:10 *186:100 8.62876e-05
41 *23:10 *186:113 1.14452e-05
42 *24:14 *186:96 0.00047151
43 *26:38 *186:96 0.00169656
44 *28:20 *186:117 0.000156123
45 *29:10 *186:22 0.00022701
46 *38:10 *186:36 4.75365e-05
47 *41:24 *186:100 2.13834e-05
48 *41:24 *186:113 2.3529e-05
49 *44:8 *186:96 5.50049e-05
50 *47:10 *186:100 0.00104051
51 *57:6 *186:113 0.00030867
52 *65:14 *186:100 0.0011691
53 *65:14 *186:113 5.24393e-05
54 *66:22 *186:100 0.000198724
55 *70:16 *186:22 1.34995e-05
56 *71:18 *186:36 0.000518236
57 *74:10 *186:10 6.28952e-05
58 *74:10 *186:22 0.000287408
59 *77:10 *186:117 0.000272839
60 *90:20 *186:22 0.000118048
61 *99:6 *2187:B 7.43025e-06
62 *110:10 *186:117 0
63 *113:32 *186:36 0.000325352
64 *114:6 *186:58 0.00048871
65 *115:108 *2231:C 0.000355822
66 *116:34 *186:22 4.07138e-06
67 *116:34 *186:36 6.3704e-06
68 *119:115 *2230:C 1.41129e-05
69 *128:10 *350:DIODE 5.3304e-05
70 *128:10 *2230:C 0.00030373
71 *130:60 *186:22 0
72 *144:43 *186:10 0.000741401
73 *152:8 *186:117 0.00019747
74 *165:10 *2187:B 0.000125715
75 *165:10 *186:36 3.06911e-05
76 *166:24 *186:36 2.05503e-05
77 *170:113 *2230:C 0.000221997
78 *171:10 *186:60 0.000686029
79 *171:14 *186:60 0.00181088
80 *171:170 *354:DIODE 8.62876e-05
81 *171:170 *186:60 0.001771
82 *172:62 *186:22 0.000402335
83 *177:170 *2230:C 2.60152e-05
84 *177:170 *186:117 6.68793e-05
85 *179:190 *186:60 0.00244135
86 *184:54 *186:22 1.35135e-05
87 *184:54 *186:36 0.000170933
88 *185:28 *186:117 0.000566544
89 *185:56 *186:117 7.6144e-05
*RES
1 *2353:Q *186:4 23 
2 *186:4 *186:10 43.2543 
3 *186:10 *186:22 49.3989 
4 *186:22 *186:36 48.9611 
5 *186:36 *2187:B 31.2857 
6 *186:36 *253:DIODE 23 
7 *186:10 *186:58 40.6264 
8 *186:58 *186:60 56.84 
9 *186:60 *2231:C 43.0543 
10 *186:60 *354:DIODE 39.2014 
11 *186:4 *186:96 44.5979 
12 *186:96 *186:100 30.6393 
13 *186:100 *346:DIODE 38 
14 *186:100 *186:113 19.3293 
15 *186:113 *186:117 34.1607 
16 *186:117 *350:DIODE 38.6214 
17 *186:117 *2230:C 44.2557 
18 *186:113 *2229:A 23 
*END

*D_NET *187 0.0432849
*CONN
*I *358:DIODE I *D sky130_fd_sc_hd__diode_2
*I *2233:A1 I *D sky130_fd_sc_hd__o21ba_1
*I *355:DIODE I *D sky130_fd_sc_hd__diode_2
*I *2231:D I *D sky130_fd_sc_hd__and4_1
*I *2187:C I *D sky130_fd_sc_hd__or4b_2
*I *254:DIODE I *D sky130_fd_sc_hd__diode_2
*I *2354:Q O *D sky130_fd_sc_hd__dfrtp_2
*CAP
1 *358:DIODE 0
2 *2233:A1 1.06208e-05
3 *355:DIODE 0.000161797
4 *2231:D 0
5 *2187:C 0
6 *254:DIODE 0
7 *2354:Q 0.00039821
8 *187:86 0.00017671
9 *187:78 0.000338507
10 *187:76 0.000435362
11 *187:68 0.00148485
12 *187:66 0.00151902
13 *187:48 0.000516211
14 *187:36 0.000882254
15 *187:32 0.00140404
16 *187:30 0.0011756
17 *187:22 0.000607141
18 *187:20 0.00327372
19 *187:18 0.00329374
20 *187:16 0.000418371
21 *187:12 0.0020459
22 *187:8 0.00205639
23 *187:8 *220:8 0.000424109
24 *187:20 *2180:A 9.67842e-05
25 *187:20 *2180:D 0.000118549
26 *187:20 *191:74 0.00156415
27 *187:20 *191:82 9.67842e-05
28 *187:20 *196:70 0.000112513
29 *187:20 *196:72 2.42041e-05
30 *187:30 *192:18 3.7122e-06
31 *187:36 *198:44 0.000688894
32 *187:76 *192:140 0.000496261
33 *501:DIODE *187:20 0.000136743
34 *2187:B *187:48 0.000392072
35 *2233:A2 *2233:A1 5.12055e-06
36 *2233:A2 *187:16 1.23695e-05
37 *2233:B1_N *2233:A1 4.98122e-06
38 *2233:B1_N *187:16 2.2488e-06
39 *2233:B1_N *187:20 0.000205025
40 *17:8 *187:68 0
41 *26:10 *187:32 0.00268086
42 *30:18 *187:48 0.000115013
43 *45:10 *187:8 0
44 *74:10 *187:48 0.000117254
45 *99:6 *187:48 5.50106e-05
46 *100:14 *187:32 0.00011445
47 *108:22 *187:12 0.00187059
48 *108:22 *187:16 0.000407141
49 *116:78 *187:68 0.000725424
50 *116:78 *187:86 7.51025e-05
51 *125:14 *187:76 6.17437e-06
52 *127:20 *187:32 0.000115154
53 *127:20 *187:68 0.000428743
54 *130:74 *187:20 0.000641773
55 *131:18 *187:32 0
56 *134:8 *187:32 0.000214381
57 *134:10 *187:32 0.000163744
58 *134:16 *187:32 0.000583568
59 *134:218 *187:32 2.24973e-05
60 *136:16 *187:68 0.00307549
61 *136:16 *187:76 0.00101604
62 *136:16 *187:86 0.000270464
63 *141:36 *187:66 0.000384057
64 *146:20 *187:20 0.000229236
65 *146:30 *187:20 0.00212017
66 *146:30 *187:30 2.1522e-05
67 *148:12 *187:68 0.000679505
68 *153:45 *187:32 8.62783e-05
69 *171:14 *187:30 0.000115013
70 *171:14 *187:66 0.000316517
71 *179:170 *187:30 0.000115013
72 *179:170 *187:32 0.000136486
73 *179:170 *187:66 2.45554e-05
74 *179:181 *187:66 0.000165394
75 *179:190 *187:66 0.000141029
76 *182:24 *187:20 0.000944898
77 *184:34 *187:86 0.000111648
78 *185:114 *355:DIODE 0.000176248
79 *185:124 *355:DIODE 0.000141355
80 *185:124 *187:86 9.41704e-05
*RES
1 *2354:Q *187:8 46.5964 
2 *187:8 *187:12 38.49 
3 *187:12 *187:16 6.25054 
4 *187:16 *187:18 0.466071 
5 *187:18 *187:20 66.7363 
6 *187:20 *187:22 15 
7 *187:22 *187:30 32.6514 
8 *187:30 *187:32 36.0636 
9 *187:32 *187:36 23.2443 
10 *187:36 *187:48 39.0107 
11 *187:48 *254:DIODE 23 
12 *187:36 *2187:C 23 
13 *187:22 *187:66 38.8036 
14 *187:66 *187:68 40.6414 
15 *187:68 *187:76 44.6243 
16 *187:76 *187:78 15 
17 *187:78 *187:86 34.7643 
18 *187:86 *2231:D 23 
19 *187:78 *355:DIODE 26.48 
20 *187:16 *2233:A1 23.4298 
21 *187:12 *358:DIODE 23 
*END

*D_NET *188 0.0305616
*CONN
*I *2235:A1 I *D sky130_fd_sc_hd__o211a_1
*I *362:DIODE I *D sky130_fd_sc_hd__diode_2
*I *2234:A I *D sky130_fd_sc_hd__nand2_2
*I *360:DIODE I *D sky130_fd_sc_hd__diode_2
*I *2237:B I *D sky130_fd_sc_hd__and4_1
*I *369:DIODE I *D sky130_fd_sc_hd__diode_2
*I *225:DIODE I *D sky130_fd_sc_hd__diode_2
*I *2178:D_N I *D sky130_fd_sc_hd__or4b_2
*I *2355:Q O *D sky130_fd_sc_hd__dfrtp_2
*CAP
1 *2235:A1 0
2 *362:DIODE 0
3 *2234:A 4.15687e-05
4 *360:DIODE 0.000191627
5 *2237:B 0.000251207
6 *369:DIODE 7.18515e-05
7 *225:DIODE 0
8 *2178:D_N 0
9 *2355:Q 0.000791682
10 *188:110 0.000280719
11 *188:102 0.000475664
12 *188:50 0.00023604
13 *188:42 0.00102841
14 *188:38 0.0021243
15 *188:34 0.00147357
16 *188:30 0.000947763
17 *188:24 0.000871432
18 *188:22 0.000271605
19 *188:18 0.0011415
20 *188:12 0.0019716
21 *188:8 0.00199373
22 *360:DIODE *201:48 0.000219383
23 *2234:A *201:48 2.18409e-05
24 *2237:B *213:44 0.000137368
25 *188:22 *201:54 0
26 *188:38 *219:8 0.000394186
27 *188:102 *211:111 1.09834e-05
28 *188:110 *209:75 0.000183547
29 *188:110 *212:118 7.36675e-05
30 *2227:B *188:42 7.71687e-05
31 *2235:A2 *188:102 0.000179271
32 *2355:RESET_B *188:8 8.22875e-05
33 *2359:D *2234:A 9.41704e-05
34 *18:10 *188:12 0
35 *18:10 *188:110 6.75596e-05
36 *25:10 *188:102 1.24376e-05
37 *38:10 *188:30 0.00100692
38 *38:10 *188:34 0.00010777
39 *70:16 *188:18 0.00025996
40 *74:10 *188:12 0
41 *74:10 *188:18 0.000362694
42 *90:20 *188:12 0.000296055
43 *90:20 *188:18 0.000365478
44 *100:42 *188:42 0.000647821
45 *105:16 *2237:B 0.000229552
46 *105:24 *188:18 0.00104577
47 *120:16 *188:24 1.40672e-05
48 *120:16 *188:30 0.000359648
49 *120:16 *188:34 2.68872e-05
50 *122:22 *188:42 0
51 *122:57 *188:110 0.000186032
52 *125:26 *188:42 0.000245324
53 *127:12 *188:42 9.85586e-06
54 *127:20 *188:42 0.000208147
55 *130:60 *188:22 1.01436e-05
56 *130:60 *188:24 8.28736e-05
57 *130:60 *188:30 0.000108681
58 *131:42 *2234:A 5.3304e-05
59 *131:44 *188:22 0.000196071
60 *131:44 *188:24 3.33144e-05
61 *138:32 *188:110 1.73995e-05
62 *157:12 *188:42 0.000117368
63 *157:12 *188:50 7.4099e-05
64 *166:24 *369:DIODE 9.61729e-05
65 *166:24 *188:38 0.00039552
66 *166:30 *188:38 0.0004438
67 *172:62 *188:18 0.000137651
68 *176:74 *188:8 2.64616e-05
69 *176:82 *188:12 0.00183066
70 *176:102 *188:12 6.2088e-05
71 *176:102 *188:102 0.000101014
72 *176:102 *188:110 5.71002e-06
73 *179:118 *188:42 0.000218382
74 *179:129 *188:42 0.00020931
75 *179:142 *188:42 0.00146065
76 *185:84 *188:12 0.00234085
77 *185:84 *188:18 0.000400666
78 *185:84 *188:102 0.000109797
79 *185:114 *188:110 0.000137533
80 *186:10 *188:18 0.000138763
81 *186:22 *188:18 0.000663223
*RES
1 *2355:Q *188:8 47.6736 
2 *188:8 *188:12 32.2832 
3 *188:12 *188:18 43.6789 
4 *188:18 *188:22 17.9621 
5 *188:22 *188:24 1.20143 
6 *188:24 *188:30 16.4057 
7 *188:30 *188:34 16.5536 
8 *188:34 *188:38 33.2493 
9 *188:38 *188:42 40.4993 
10 *188:42 *188:50 33.48 
11 *188:50 *2178:D_N 23 
12 *188:42 *225:DIODE 23 
13 *188:34 *369:DIODE 24.0979 
14 *188:30 *2237:B 42.9093 
15 *188:24 *360:DIODE 40.5271 
16 *188:22 *2234:A 39.0979 
17 *188:8 *188:102 19.4536 
18 *188:102 *188:110 36.2143 
19 *188:110 *362:DIODE 23 
20 *188:102 *2235:A1 23 
*END

*D_NET *189 0.0316565
*CONN
*I *366:DIODE I *D sky130_fd_sc_hd__diode_2
*I *2236:A I *D sky130_fd_sc_hd__xnor2_2
*I *222:DIODE I *D sky130_fd_sc_hd__diode_2
*I *2178:A I *D sky130_fd_sc_hd__or4b_2
*I *2237:A I *D sky130_fd_sc_hd__and4_1
*I *368:DIODE I *D sky130_fd_sc_hd__diode_2
*I *2356:Q O *D sky130_fd_sc_hd__dfrtp_4
*CAP
1 *366:DIODE 0
2 *2236:A 0.000283954
3 *222:DIODE 0
4 *2178:A 0.000174048
5 *2237:A 0
6 *368:DIODE 4.09526e-05
7 *2356:Q 0.00074016
8 *189:70 0.000332877
9 *189:64 0.000575911
10 *189:60 0.000232563
11 *189:56 0.000853124
12 *189:52 0.00193838
13 *189:32 7.50645e-05
14 *189:30 0.00192046
15 *189:24 0.00190585
16 *189:20 0.00256367
17 *189:14 0.00235734
18 *189:10 0.00173802
19 *2178:A *2178:C 0.000548132
20 *2178:A *194:75 0.000192342
21 *2236:A *193:10 0
22 *189:20 *2273:A1 5.16949e-05
23 *189:24 *2273:A1 0.000178235
24 *189:24 *206:38 0.000439951
25 *189:30 *214:22 4.6643e-05
26 *189:52 *195:72 0
27 *189:52 *213:30 4.97477e-05
28 *189:56 *193:10 3.01638e-05
29 *189:70 *194:75 4.46854e-05
30 *536:DIODE *189:20 5.3304e-05
31 *2236:B *2236:A 2.02872e-05
32 *2273:A2 *189:20 0.00039011
33 *2276:B *2178:A 0.000100477
34 *2279:B *189:52 0.000525758
35 *2356:CLK *189:10 0.000135037
36 *2356:D *189:10 5.97104e-05
37 *2356:D *189:14 0.000244526
38 *2356:RESET_B *189:10 0.000104255
39 *2377:RESET_B *189:30 5.90312e-05
40 *17:24 *189:24 0.000910794
41 *26:8 *2236:A 0.000189848
42 *26:38 *189:14 8.4047e-05
43 *28:20 *189:14 0.000173206
44 *33:39 *189:14 0.000249909
45 *39:8 *189:24 0.000843717
46 *40:6 *2178:A 0.000277805
47 *40:6 *189:70 5.5792e-05
48 *47:8 *189:20 0.000167856
49 *90:10 *2178:A 8.0314e-05
50 *90:10 *2236:A 0.000100545
51 *90:10 *189:70 0.000217543
52 *105:16 *368:DIODE 5.3304e-05
53 *105:16 *189:30 0.000561796
54 *105:16 *189:32 5.3304e-05
55 *106:12 *189:56 0.00139643
56 *109:22 *189:14 0.000947123
57 *110:14 *189:20 0.000405389
58 *116:14 *189:56 0.000676836
59 *122:31 *2236:A 6.62374e-05
60 *126:10 *189:14 0.00225849
61 *126:40 *189:14 0.000259946
62 *157:12 *189:60 4.33627e-05
63 *157:12 *189:64 0.000187363
64 *157:25 *189:60 0.000102971
65 *159:40 *189:52 0.000258114
66 *162:8 *189:30 0.000232361
67 *166:54 *189:24 0.000956444
68 *169:44 *189:30 0.000232361
69 *174:16 *189:24 8.55549e-05
70 *174:18 *189:24 0.000141098
71 *179:112 *189:70 0.000135616
72 *184:54 *189:52 0.00024456
*RES
1 *2356:Q *189:10 35.6979 
2 *189:10 *189:14 48.9507 
3 *189:14 *189:20 38.8629 
4 *189:20 *189:24 47.0657 
5 *189:24 *189:30 28.4643 
6 *189:30 *189:32 0.621429 
7 *189:32 *368:DIODE 23.6214 
8 *189:32 *2237:A 23 
9 *189:30 *189:52 47.7521 
10 *189:52 *189:56 35.9214 
11 *189:56 *189:60 16.5743 
12 *189:60 *189:64 17.0507 
13 *189:64 *189:70 19.2879 
14 *189:70 *2178:A 31.9071 
15 *189:70 *222:DIODE 23 
16 *189:64 *2236:A 44.0279 
17 *189:60 *366:DIODE 23 
*END

*D_NET *190 0.0331614
*CONN
*I *2180:B I *D sky130_fd_sc_hd__or4_1
*I *231:DIODE I *D sky130_fd_sc_hd__diode_2
*I *2245:B I *D sky130_fd_sc_hd__nand4_2
*I *387:DIODE I *D sky130_fd_sc_hd__diode_2
*I *2241:A1 I *D sky130_fd_sc_hd__a21oi_1
*I *377:DIODE I *D sky130_fd_sc_hd__diode_2
*I *375:DIODE I *D sky130_fd_sc_hd__diode_2
*I *381:DIODE I *D sky130_fd_sc_hd__diode_2
*I *2242:B I *D sky130_fd_sc_hd__and3_2
*I *2240:A I *D sky130_fd_sc_hd__xor2_1
*I *395:DIODE I *D sky130_fd_sc_hd__diode_2
*I *2249:B I *D sky130_fd_sc_hd__and4_2
*I *2357:Q O *D sky130_fd_sc_hd__dfrtp_4
*CAP
1 *2180:B 0
2 *231:DIODE 0
3 *2245:B 0
4 *387:DIODE 0
5 *2241:A1 0
6 *377:DIODE 0
7 *375:DIODE 0
8 *381:DIODE 7.18257e-05
9 *2242:B 0.00011508
10 *2240:A 0
11 *395:DIODE 0.000200528
12 *2249:B 0.000174201
13 *2357:Q 6.85707e-05
14 *190:153 0.000151226
15 *190:138 0.000168272
16 *190:131 0.000185999
17 *190:118 0.000430954
18 *190:114 0.00064453
19 *190:101 0.000186449
20 *190:88 0.000731162
21 *190:63 0.000756455
22 *190:52 0.000849399
23 *190:46 0.00315829
24 *190:44 0.0045125
25 *190:38 0.00177804
26 *190:34 0.000551373
27 *190:16 0.00114742
28 *190:6 0.00108648
29 *395:DIODE *192:69 9.65021e-05
30 *395:DIODE *215:8 1.46462e-05
31 *2249:B *192:69 9.97964e-05
32 *2249:B *193:37 4.4859e-06
33 *2249:B *215:8 1.66293e-05
34 *190:6 *217:26 9.29601e-05
35 *190:34 *217:26 0.000234872
36 *190:34 *217:32 1.24376e-05
37 *190:38 *191:90 0.000259322
38 *190:38 *208:38 0.000539245
39 *190:44 *191:90 5.03866e-05
40 *190:44 *204:82 0
41 *190:44 *208:38 0.00153922
42 *190:88 *208:38 0
43 *190:88 *213:12 0.00021459
44 *190:101 *208:38 8.62876e-05
45 *190:114 *205:58 0.000104515
46 *190:118 *191:112 0.00038455
47 *190:118 *191:129 5.3304e-05
48 *190:138 *217:32 4.2573e-05
49 *190:153 *2180:D 5.3304e-05
50 *190:153 *191:90 0.000166522
51 *190:153 *217:32 8.43466e-05
52 *20:10 *190:44 0.000110469
53 *26:26 *190:16 2.50756e-05
54 *35:22 *190:44 0.000175903
55 *35:22 *190:46 0.00268532
56 *41:8 *190:88 0.000242798
57 *48:10 *190:114 0.000385463
58 *51:12 *190:16 0.000506578
59 *73:18 *190:118 0.000551537
60 *73:18 *190:131 0.000138607
61 *75:38 *190:131 8.71394e-05
62 *89:8 *190:16 0.0010935
63 *95:20 *190:16 0
64 *115:34 *190:52 6.16531e-05
65 *115:34 *190:63 0.00140811
66 *116:14 *190:52 6.38845e-05
67 *116:14 *190:63 0.00139665
68 *123:20 *190:44 4.76697e-05
69 *134:43 *190:88 0.000272964
70 *134:65 *190:44 2.04774e-05
71 *134:95 *190:44 1.62615e-05
72 *138:12 *190:131 0.000186448
73 *143:12 *190:46 0.000815706
74 *143:12 *190:52 0.000352421
75 *143:14 *190:46 0.000110002
76 *151:94 *190:88 0
77 *160:6 *395:DIODE 1.59094e-05
78 *164:14 *190:101 4.29244e-05
79 *166:66 *190:44 4.1327e-05
80 *166:66 *190:153 0.000164282
81 *169:40 *381:DIODE 9.5877e-05
82 *169:40 *2242:B 0.000137651
83 *169:94 *190:44 7.97587e-05
84 *172:38 *190:34 9.68428e-05
85 *172:38 *190:138 1.94812e-05
86 *172:38 *190:153 3.16665e-05
87 *173:18 *190:16 0.000127537
88 *174:165 *190:6 0.000140927
89 *174:165 *190:16 6.17437e-06
90 *175:64 *190:44 0
91 *180:58 *190:114 0.000106747
92 *183:24 *190:44 6.01751e-05
93 *183:43 *190:101 1.32314e-05
94 *183:51 *190:88 2.29192e-05
95 *183:51 *190:101 8.4047e-05
*RES
1 *2357:Q *190:6 25.0507 
2 *190:6 *190:16 47.11 
3 *190:16 *2249:B 25.5479 
4 *190:16 *395:DIODE 25.5271 
5 *190:6 *190:34 5.38571 
6 *190:34 *190:38 22.54 
7 *190:38 *190:44 38.6764 
8 *190:44 *190:46 41.5943 
9 *190:46 *190:52 19.8057 
10 *190:52 *2240:A 38 
11 *190:52 *190:63 34.1607 
12 *190:63 *2242:B 24.5743 
13 *190:63 *381:DIODE 24.0979 
14 *190:46 *375:DIODE 23 
15 *190:44 *190:88 42.47 
16 *190:88 *377:DIODE 23 
17 *190:88 *190:101 33.2521 
18 *190:101 *2241:A1 23 
19 *190:38 *190:114 35.9864 
20 *190:114 *190:118 21.3386 
21 *190:118 *387:DIODE 23 
22 *190:118 *190:131 34.1843 
23 *190:131 *2245:B 23 
24 *190:34 *190:138 0.621429 
25 *190:138 *231:DIODE 23 
26 *190:138 *190:153 33.9771 
27 *190:153 *2180:B 23 
*END

*D_NET *191 0.0438093
*CONN
*I *230:DIODE I *D sky130_fd_sc_hd__diode_2
*I *2180:A I *D sky130_fd_sc_hd__or4_1
*I *2245:A I *D sky130_fd_sc_hd__nand4_2
*I *386:DIODE I *D sky130_fd_sc_hd__diode_2
*I *2241:B1 I *D sky130_fd_sc_hd__a21oi_1
*I *379:DIODE I *D sky130_fd_sc_hd__diode_2
*I *2249:A I *D sky130_fd_sc_hd__and4_2
*I *394:DIODE I *D sky130_fd_sc_hd__diode_2
*I *380:DIODE I *D sky130_fd_sc_hd__diode_2
*I *2242:A I *D sky130_fd_sc_hd__and3_2
*I *2358:Q O *D sky130_fd_sc_hd__dfrtp_4
*CAP
1 *230:DIODE 0
2 *2180:A 3.036e-05
3 *2245:A 0
4 *386:DIODE 0
5 *2241:B1 0
6 *379:DIODE 0.000128781
7 *2249:A 3.9799e-05
8 *394:DIODE 0
9 *380:DIODE 0.000281859
10 *2242:A 0.000130667
11 *2358:Q 0.00024393
12 *191:129 0.00030454
13 *191:112 0.000753243
14 *191:98 0.000211565
15 *191:94 0.00111438
16 *191:90 0.00216071
17 *191:82 0.000786426
18 *191:74 0.00138981
19 *191:72 0.00175974
20 *191:52 0.000380797
21 *191:50 0.00065953
22 *191:40 0.00280681
23 *191:16 0.000773942
24 *191:14 0.00289484
25 *191:12 0.00213094
26 *191:8 0.00188414
27 *380:DIODE *201:22 8.41241e-05
28 *380:DIODE *201:31 5.3304e-05
29 *2180:A *2180:D 4.5051e-05
30 *2249:A *193:37 9.91101e-05
31 *191:12 *193:48 2.20458e-05
32 *191:14 *193:48 0
33 *191:40 *195:38 0.000313505
34 *191:50 *193:22 1.56446e-05
35 *191:52 *192:38 0.000672198
36 *191:52 *192:57 0.000144494
37 *191:52 *193:22 0.000543701
38 *191:52 *193:37 0.000341201
39 *191:72 *2210:A 6.17437e-06
40 *191:72 *197:20 0.000287777
41 *191:82 *2180:D 5.41288e-05
42 *191:90 *208:32 0
43 *191:90 *208:38 2.81934e-05
44 *191:90 *212:63 0.000135037
45 *191:94 *194:20 0.00022951
46 *191:94 *194:41 8.71756e-06
47 *191:94 *204:82 0.00191536
48 *191:94 *208:38 0
49 *191:129 *2245:C 2.62931e-05
50 *378:DIODE *379:DIODE 0.000127821
51 *378:DIODE *191:98 0.000143655
52 *2341:RESET_B *191:129 7.81315e-05
53 *2359:RESET_B *191:16 0.000165593
54 *16:8 *191:129 0.000212621
55 *19:10 *191:50 0.000660762
56 *31:14 *191:12 0.00051066
57 *48:8 *2242:A 5.50106e-05
58 *55:18 *191:72 0.000285649
59 *56:18 *191:50 0.000662928
60 *73:18 *191:90 2.02872e-05
61 *73:18 *191:112 6.24251e-05
62 *92:8 *191:82 4.41821e-06
63 *106:10 *191:14 7.45175e-05
64 *106:168 *191:14 0.000187505
65 *112:24 *191:8 0.000354867
66 *113:32 *2242:A 5.67058e-05
67 *114:6 *191:40 0.000941092
68 *114:6 *191:72 0.000157332
69 *115:12 *191:12 0.00290928
70 *115:12 *191:14 0.000269711
71 *115:54 *191:50 0.000179473
72 *115:54 *191:52 1.56762e-05
73 *115:108 *191:8 0.000272587
74 *115:108 *191:12 0.000329212
75 *116:14 *2242:A 0.000113584
76 *116:14 *191:16 5.94908e-05
77 *116:72 *191:14 0.00033338
78 *116:72 *191:16 0.000307135
79 *119:38 *191:72 5.61255e-06
80 *126:22 *379:DIODE 9.45591e-05
81 *134:47 *379:DIODE 5.67058e-05
82 *134:95 *191:90 0.000205294
83 *138:12 *191:129 6.51005e-05
84 *138:38 *191:12 0.000220665
85 *141:22 *191:50 0.000137368
86 *141:36 *191:40 0.00026528
87 *144:56 *2242:A 0.000237002
88 *144:56 *191:14 0.000258321
89 *144:56 *191:16 0.000912993
90 *158:22 *191:12 0.000365444
91 *158:22 *191:14 0.000142841
92 *158:22 *191:16 0.000127211
93 *166:66 *191:82 0
94 *166:66 *191:90 0.000253562
95 *169:94 *191:90 1.01436e-05
96 *180:58 *191:94 2.03909e-05
97 *181:78 *191:98 2.18409e-05
98 *182:24 *191:82 5.78554e-05
99 *182:24 *191:90 6.72178e-06
100 *183:12 *191:129 1.86268e-05
101 *183:33 *191:94 0.000171788
102 *183:37 *191:94 0.00174341
103 *183:51 *379:DIODE 0.0002263
104 *183:150 *191:129 6.85236e-05
105 *187:20 *2180:A 9.67842e-05
106 *187:20 *191:74 0.00156415
107 *187:20 *191:82 9.67842e-05
108 *190:38 *191:90 0.000259322
109 *190:44 *191:90 5.03866e-05
110 *190:118 *191:112 0.00038455
111 *190:118 *191:129 5.3304e-05
112 *190:153 *191:90 0.000166522
*RES
1 *2358:Q *191:8 45.2914 
2 *191:8 *191:12 44.7843 
3 *191:12 *191:14 13.1743 
4 *191:14 *191:16 12.47 
5 *191:16 *2242:A 41.9357 
6 *191:16 *380:DIODE 41.48 
7 *191:14 *191:40 41.825 
8 *191:40 *191:50 41.4964 
9 *191:50 *191:52 10.15 
10 *191:52 *394:DIODE 23 
11 *191:52 *2249:A 24.0979 
12 *191:40 *191:72 37.975 
13 *191:72 *191:74 17.7729 
14 *191:74 *191:82 31.9471 
15 *191:82 *191:90 44.5207 
16 *191:90 *191:94 45.7814 
17 *191:94 *191:98 17.0507 
18 *191:98 *379:DIODE 26.9564 
19 *191:98 *2241:B1 23 
20 *191:90 *191:112 5.86214 
21 *191:112 *386:DIODE 23 
22 *191:112 *191:129 36.0071 
23 *191:129 *2245:A 23 
24 *191:82 *2180:A 24.0979 
25 *191:74 *230:DIODE 23 
*END

*D_NET *192 0.0529128
*CONN
*I *384:DIODE I *D sky130_fd_sc_hd__diode_2
*I *2244:A I *D sky130_fd_sc_hd__or2_1
*I *227:DIODE I *D sky130_fd_sc_hd__diode_2
*I *2179:B I *D sky130_fd_sc_hd__nand4_1
*I *388:DIODE I *D sky130_fd_sc_hd__diode_2
*I *2245:C I *D sky130_fd_sc_hd__nand4_2
*I *2249:D I *D sky130_fd_sc_hd__and4_2
*I *397:DIODE I *D sky130_fd_sc_hd__diode_2
*I *2359:Q O *D sky130_fd_sc_hd__dfrtp_4
*CAP
1 *384:DIODE 0.000214561
2 *2244:A 1.50079e-05
3 *227:DIODE 0.000192755
4 *2179:B 0
5 *388:DIODE 0
6 *2245:C 0.000426598
7 *2249:D 0
8 *397:DIODE 0
9 *2359:Q 0.000287593
10 *192:140 0.001941
11 *192:126 0.000452042
12 *192:122 0.00214543
13 *192:120 0.00415721
14 *192:92 0.00116757
15 *192:84 0.00107593
16 *192:76 0.00387345
17 *192:69 0.000247905
18 *192:61 0.00191031
19 *192:57 0.000791617
20 *192:38 0.00100265
21 *192:30 0.00331309
22 *192:28 0.00270707
23 *192:26 0.00203
24 *192:18 0.00063708
25 *192:10 0.00060611
26 *384:DIODE *213:130 0
27 *2244:A *2216:B 5.50049e-05
28 *192:38 *198:68 2.11887e-05
29 *192:38 *206:40 0.000307347
30 *192:38 *210:78 0.00038125
31 *192:57 *206:52 0.000134533
32 *192:57 *206:84 7.39034e-05
33 *192:69 *215:8 6.40928e-05
34 *192:120 *211:60 0.00074037
35 *192:122 *2207:A 3.99803e-05
36 *192:122 *195:140 0.000163352
37 *192:122 *211:60 0.000654525
38 *192:122 *211:118 5.09988e-05
39 *192:122 *213:152 4.08641e-05
40 *192:122 *214:106 6.68793e-05
41 *192:126 *2179:C 1.32939e-05
42 *192:126 *2179:D 0.000153155
43 *385:DIODE *384:DIODE 5.51222e-05
44 *385:DIODE *192:140 4.21594e-06
45 *395:DIODE *192:69 9.65021e-05
46 *2249:B *192:69 9.97964e-05
47 *2341:RESET_B *2245:C 0.000106757
48 *16:8 *192:84 0.000415794
49 *26:10 *192:10 4.48835e-05
50 *26:10 *192:18 0.000639177
51 *32:8 *192:26 6.17437e-06
52 *33:26 *2245:C 9.17365e-05
53 *36:26 *192:92 0.000178742
54 *39:32 *192:69 0.000388596
55 *57:14 *192:61 3.06766e-05
56 *57:14 *192:76 0.00010016
57 *57:14 *192:120 0.000100328
58 *58:18 *192:122 0
59 *67:26 *192:120 0.000161395
60 *67:26 *192:122 0.000278062
61 *73:8 *192:30 0.000638491
62 *73:12 *192:30 0.000285953
63 *75:16 *192:30 0.00137872
64 *81:14 *192:122 0
65 *89:8 *192:69 0.00038442
66 *94:18 *192:57 0
67 *95:20 *192:57 0.000385588
68 *100:65 *192:26 0.000792264
69 *100:65 *192:140 0.000503714
70 *103:14 *192:92 0.00100782
71 *106:134 *384:DIODE 0.000185434
72 *109:16 *192:122 0
73 *109:20 *192:122 0
74 *109:22 *192:122 0
75 *109:75 *192:122 8.4502e-05
76 *112:8 *192:122 0.0002125
77 *115:54 *192:38 0.000259337
78 *118:20 *2244:A 5.50049e-05
79 *119:119 *192:122 0.000187986
80 *119:133 *192:120 0.000714906
81 *119:133 *192:122 0.00109097
82 *125:18 *192:10 0.000105399
83 *125:18 *192:140 0.000709899
84 *127:20 *192:26 0.000115724
85 *127:20 *192:140 0.000128673
86 *129:8 *192:140 5.07209e-05
87 *132:28 *192:84 0.000135037
88 *133:16 *192:57 0.000114639
89 *134:75 *2245:C 0.000568794
90 *134:218 *192:10 0.000122397
91 *136:16 *192:10 4.81997e-05
92 *136:16 *192:140 0.000104669
93 *138:12 *2245:C 1.21972e-05
94 *141:8 *192:57 0
95 *141:22 *192:57 3.13969e-05
96 *146:30 *192:18 0.000178517
97 *147:10 *192:26 0.000787801
98 *147:10 *192:140 0.00135624
99 *156:65 *2245:C 0.000254553
100 *156:65 *192:92 0.000504563
101 *171:170 *384:DIODE 0
102 *171:180 *384:DIODE 0.000185434
103 *177:170 *192:122 0
104 *178:48 *2245:C 0.000254553
105 *178:48 *192:92 0.000943576
106 *178:74 *192:92 0.000712304
107 *179:168 *192:10 0.000191148
108 *179:170 *192:18 6.15434e-05
109 *179:181 *192:18 0.000156141
110 *179:190 *192:18 0.000418208
111 *179:190 *192:140 0
112 *183:150 *192:84 0.000196064
113 *186:60 *192:140 0
114 *187:30 *192:18 3.7122e-06
115 *187:76 *192:140 0.000496261
116 *191:52 *192:38 0.000672198
117 *191:52 *192:57 0.000144494
118 *191:129 *2245:C 2.62931e-05
*RES
1 *2359:Q *192:10 45.0014 
2 *192:10 *192:18 40.6471 
3 *192:18 *192:26 41.9314 
4 *192:26 *192:28 15 
5 *192:28 *192:30 36.3536 
6 *192:30 *192:38 43.195 
7 *192:38 *397:DIODE 23 
8 *192:38 *192:57 38.3742 
9 *192:57 *192:61 19.4329 
10 *192:61 *192:69 37.4779 
11 *192:69 *2249:D 23 
12 *192:61 *192:76 13.9614 
13 *192:76 *192:84 37.3536 
14 *192:84 *192:92 39.505 
15 *192:92 *2245:C 48.5021 
16 *192:92 *388:DIODE 38 
17 *192:76 *192:120 48.4639 
18 *192:120 *192:122 45.7475 
19 *192:122 *192:126 18.9564 
20 *192:126 *2179:B 23 
21 *192:126 *227:DIODE 25.5271 
22 *192:26 *192:140 45.5714 
23 *192:140 *2244:A 38.6214 
24 *192:140 *384:DIODE 43.365 
*END

*D_NET *193 0.0419064
*CONN
*I *2179:A I *D sky130_fd_sc_hd__nand4_1
*I *226:DIODE I *D sky130_fd_sc_hd__diode_2
*I *2248:A I *D sky130_fd_sc_hd__or2b_1
*I *392:DIODE I *D sky130_fd_sc_hd__diode_2
*I *2249:C I *D sky130_fd_sc_hd__and4_2
*I *396:DIODE I *D sky130_fd_sc_hd__diode_2
*I *2360:Q O *D sky130_fd_sc_hd__dfrtp_4
*CAP
1 *2179:A 0
2 *226:DIODE 0
3 *2248:A 0
4 *392:DIODE 0.000126654
5 *2249:C 0
6 *396:DIODE 0
7 *2360:Q 0.000114744
8 *193:87 0.000400077
9 *193:74 0.00412369
10 *193:72 0.00466736
11 *193:59 0.00104565
12 *193:50 0.000228556
13 *193:48 0.00173448
14 *193:37 0.000272533
15 *193:22 0.00226266
16 *193:10 0.00627877
17 *193:8 0.00266891
18 *193:10 *213:72 6.10809e-05
19 *193:22 *214:53 0.000420405
20 *193:22 *215:8 0.000707167
21 *193:37 *215:8 0.000529177
22 *193:48 *214:66 0.000219015
23 *193:48 *214:68 0.000268775
24 *193:72 *212:118 3.7122e-06
25 *193:72 *214:68 0
26 *193:72 *214:87 0
27 *193:72 *214:98 0
28 *193:74 *213:146 4.79612e-05
29 *193:74 *214:100 0.00395244
30 *193:87 *213:146 4.04598e-06
31 *2236:A *193:10 0
32 *2236:B *193:10 4.23817e-05
33 *2249:A *193:37 9.91101e-05
34 *2249:B *193:37 4.4859e-06
35 *2358:RESET_B *193:48 0.000804019
36 *18:10 *193:72 0
37 *19:10 *193:22 2.05503e-05
38 *26:10 *193:10 0
39 *28:40 *193:72 2.5343e-05
40 *31:14 *193:48 6.6663e-06
41 *31:14 *193:72 0
42 *33:10 *193:10 0.000244436
43 *56:18 *193:22 2.26406e-05
44 *81:14 *193:87 8.62073e-06
45 *91:10 *193:87 6.63801e-05
46 *104:34 *193:72 0.000171476
47 *106:10 *193:10 0.000295413
48 *106:12 *193:10 0.00150762
49 *106:168 *193:10 0.00011344
50 *106:168 *193:48 5.23415e-05
51 *106:178 *193:48 3.56594e-05
52 *115:12 *193:72 7.33432e-05
53 *115:108 *193:72 0.000202316
54 *131:18 *193:10 0.000458383
55 *133:16 *193:10 0.000419266
56 *133:16 *193:22 0.00264722
57 *136:10 *193:10 0.00012758
58 *140:12 *392:DIODE 5.5792e-05
59 *141:8 *193:37 1.05026e-05
60 *141:22 *193:22 0.000136738
61 *158:22 *193:10 0.000116881
62 *168:12 *193:10 0.00180767
63 *169:32 *193:10 1.69668e-05
64 *169:32 *193:48 0.000844978
65 *179:112 *193:10 3.36703e-05
66 *184:26 *193:72 0.000343906
67 *185:114 *193:72 0
68 *189:56 *193:10 3.01638e-05
69 *191:12 *193:48 2.20458e-05
70 *191:14 *193:48 0
71 *191:50 *193:22 1.56446e-05
72 *191:52 *193:22 0.000543701
73 *191:52 *193:37 0.000341201
*RES
1 *2360:Q *193:8 40.0507 
2 *193:8 *193:10 67.9325 
3 *193:10 *193:22 44.7734 
4 *193:22 *396:DIODE 23 
5 *193:22 *193:37 37.3329 
6 *193:37 *2249:C 23 
7 *193:10 *193:48 41.9361 
8 *193:48 *193:50 15 
9 *193:50 *392:DIODE 24.5743 
10 *193:50 *193:59 1.09786 
11 *193:59 *2248:A 23 
12 *193:59 *193:72 47.11 
13 *193:72 *193:74 79.7086 
14 *193:74 *226:DIODE 23 
15 *193:74 *193:87 37.2707 
16 *193:87 *2179:A 23 
*END

*D_NET *194 0.0338324
*CONN
*I *266:DIODE I *D sky130_fd_sc_hd__diode_2
*I *2192:B I *D sky130_fd_sc_hd__or2_1
*I *264:DIODE I *D sky130_fd_sc_hd__diode_2
*I *277:DIODE I *D sky130_fd_sc_hd__diode_2
*I *2199:A2 I *D sky130_fd_sc_hd__a31o_1
*I *2197:B I *D sky130_fd_sc_hd__and4_1
*I *273:DIODE I *D sky130_fd_sc_hd__diode_2
*I *224:DIODE I *D sky130_fd_sc_hd__diode_2
*I *2178:C I *D sky130_fd_sc_hd__or4b_2
*I *2193:B I *D sky130_fd_sc_hd__nand2_2
*I *2342:Q O *D sky130_fd_sc_hd__dfrtp_4
*CAP
1 *266:DIODE 4.99221e-05
2 *2192:B 4.85964e-05
3 *264:DIODE 0.000296545
4 *277:DIODE 0
5 *2199:A2 0
6 *2197:B 0.000139232
7 *273:DIODE 4.30303e-05
8 *224:DIODE 0
9 *2178:C 0.000193976
10 *2193:B 0
11 *2342:Q 0.000881485
12 *194:95 0.000499166
13 *194:75 0.000700305
14 *194:73 0.00213506
15 *194:61 0.00175041
16 *194:55 0.000576748
17 *194:49 0.000487967
18 *194:47 0.00118508
19 *194:41 0.00137062
20 *194:32 0.000508322
21 *194:20 0.000991605
22 *194:18 0.00193311
23 *194:10 0.0025688
24 *2197:B *2197:D 0.000221084
25 *194:20 *204:76 3.76959e-05
26 *194:20 *204:82 0.000105516
27 *194:20 *205:58 1.34589e-05
28 *194:32 *213:182 0.000118083
29 *194:41 *205:58 0.000267587
30 *194:47 *205:14 0.000304839
31 *194:47 *205:58 0.00126907
32 *194:47 *208:38 0
33 *194:49 *205:14 2.17544e-05
34 *194:49 *208:38 0
35 *194:55 *205:14 3.6608e-05
36 *194:61 *279:DIODE 8.48502e-06
37 *194:61 *208:62 9.41704e-05
38 *194:73 *205:22 5.91105e-05
39 *194:73 *205:28 0.00136669
40 *194:95 *205:28 0
41 *263:DIODE *2192:B 1.83444e-05
42 *528:DIODE *194:73 8.26478e-05
43 *559:DIODE *194:18 0.000388071
44 *2178:A *2178:C 0.000548132
45 *2178:A *194:75 0.000192342
46 *2178:B *2178:C 0.000278295
47 *2342:CLK *194:18 2.02872e-05
48 *2342:D *194:10 7.27182e-05
49 *2342:D *194:18 5.3304e-05
50 *2342:RESET_B *194:10 5.92321e-05
51 *2342:RESET_B *194:18 0.00162424
52 *17:24 *266:DIODE 5.3304e-05
53 *21:20 *273:DIODE 5.58003e-05
54 *21:20 *2197:B 8.75254e-05
55 *39:24 *194:32 0.00011953
56 *40:6 *194:75 1.73995e-05
57 *40:18 *194:73 0.000107369
58 *40:18 *194:75 0.000219889
59 *75:32 *194:32 0
60 *119:44 *2197:B 5.5792e-05
61 *130:52 *194:18 9.5877e-05
62 *134:95 *194:18 5.79715e-05
63 *143:24 *194:47 0.000433202
64 *151:90 *194:32 9.66585e-05
65 *153:22 *194:32 0.000188341
66 *162:8 *2197:B 3.66949e-05
67 *162:8 *194:95 4.11274e-05
68 *164:14 *264:DIODE 0.00040183
69 *164:14 *2192:B 0.000100477
70 *171:92 *194:73 0.000117447
71 *173:45 *194:32 9.41704e-05
72 *179:100 *194:55 5.00237e-05
73 *179:100 *194:61 0.000104588
74 *179:104 *194:73 1.12268e-05
75 *179:104 *194:75 0.000714222
76 *179:112 *194:75 0.00128998
77 *180:58 *194:20 0.000452085
78 *180:58 *194:41 0.000209215
79 *180:58 *194:47 0.000410403
80 *183:37 *194:47 0.000821616
81 *183:43 *2192:B 3.26241e-05
82 *183:63 *194:75 0.00267011
83 *183:63 *194:95 6.87347e-05
84 *183:67 *2178:C 0.000286691
85 *183:67 *194:75 1.73995e-05
86 *183:101 *194:61 0.000287137
87 *183:101 *194:73 1.13812e-05
88 *183:113 *194:73 9.41704e-05
89 *183:125 *2192:B 1.57556e-05
90 *189:70 *194:75 4.46854e-05
91 *191:94 *194:20 0.00022951
92 *191:94 *194:41 8.71756e-06
*RES
1 *2342:Q *194:10 34.9729 
2 *194:10 *194:18 44.8493 
3 *194:18 *194:20 7.01179 
4 *194:20 *194:32 34.828 
5 *194:32 *2193:B 23 
6 *194:20 *194:41 4.94036 
7 *194:41 *194:47 27.3221 
8 *194:47 *194:49 0.849286 
9 *194:49 *194:55 17.2993 
10 *194:55 *194:61 22.4986 
11 *194:61 *194:73 40.4786 
12 *194:73 *194:75 30.6364 
13 *194:75 *2178:C 31.1614 
14 *194:75 *224:DIODE 23 
15 *194:73 *194:95 20.075 
16 *194:95 *273:DIODE 38.6214 
17 *194:95 *2197:B 41.7286 
18 *194:61 *2199:A2 38 
19 *194:55 *277:DIODE 23 
20 *194:49 *264:DIODE 42.4329 
21 *194:47 *2192:B 39.595 
22 *194:41 *266:DIODE 38.6214 
*END

*D_NET *195 0.0472422
*CONN
*I *2254:B1 I *D sky130_fd_sc_hd__a21oi_1
*I *408:DIODE I *D sky130_fd_sc_hd__diode_2
*I *403:DIODE I *D sky130_fd_sc_hd__diode_2
*I *2253:A I *D sky130_fd_sc_hd__and3_2
*I *2180:D I *D sky130_fd_sc_hd__or4_1
*I *233:DIODE I *D sky130_fd_sc_hd__diode_2
*I *2262:B I *D sky130_fd_sc_hd__and3_1
*I *425:DIODE I *D sky130_fd_sc_hd__diode_2
*I *2361:Q O *D sky130_fd_sc_hd__dfrtp_4
*CAP
1 *2254:B1 0.000265715
2 *408:DIODE 0
3 *403:DIODE 0
4 *2253:A 0
5 *2180:D 0.000328273
6 *233:DIODE 0
7 *2262:B 0
8 *425:DIODE 9.35257e-05
9 *2361:Q 0.000314223
10 *195:156 0.000959881
11 *195:140 0.000242555
12 *195:132 0.000449427
13 *195:130 0.00223943
14 *195:120 0.00343026
15 *195:118 0.00232965
16 *195:90 0.00259932
17 *195:72 0.0010907
18 *195:64 0.00223987
19 *195:50 0.003654
20 *195:48 0.000282675
21 *195:38 0.000349799
22 *195:30 0.0014971
23 *195:6 0.00323005
24 *2180:D *2180:C 5.5048e-05
25 *2180:D *196:72 3.7122e-06
26 *2254:B1 *210:58 7.21314e-05
27 *195:30 *213:92 0.000618536
28 *195:64 *209:10 0.000113805
29 *195:72 *213:30 0
30 *195:118 *237:DIODE 2.37508e-05
31 *195:118 *2181:C 0.000291265
32 *195:118 *2181:D_N 1.12796e-05
33 *195:118 *197:46 5.13626e-05
34 *195:118 *199:92 7.61229e-06
35 *195:120 *212:12 0.0015594
36 *195:130 *2270:A 9.28078e-06
37 *195:140 *211:60 0.000161121
38 *195:156 *210:58 8.94756e-05
39 *195:156 *212:10 0.000535073
40 *195:156 *212:12 0.000449042
41 *406:DIODE *2254:B1 5.76916e-05
42 *407:DIODE *2254:B1 0.000235687
43 *2180:A *2180:D 4.5051e-05
44 *2230:B *195:140 0.000137651
45 *2230:C *195:140 2.32101e-05
46 *2230:D *195:140 5.56279e-05
47 *2253:B *195:140 1.85916e-05
48 *2361:RESET_B *195:6 0.000299593
49 *2361:RESET_B *195:30 0.000347156
50 *2361:RESET_B *195:118 5.5792e-05
51 *29:10 *195:30 0
52 *29:10 *195:48 0.000239047
53 *35:20 *195:72 0.000107232
54 *56:16 *195:130 0.000954384
55 *60:8 *195:120 0.00155936
56 *60:8 *195:156 0.000980636
57 *65:12 *195:130 5.55057e-05
58 *66:22 *195:130 6.96311e-05
59 *67:16 *195:130 0.00340826
60 *71:18 *195:72 0
61 *75:22 *195:90 0.000135037
62 *106:88 *195:130 0.000173635
63 *114:6 *195:38 0.000313028
64 *120:14 *195:64 0.000148123
65 *131:44 *195:30 9.73448e-05
66 *132:10 *195:72 2.33476e-05
67 *146:20 *195:90 0.00178419
68 *146:30 *195:50 0.000120831
69 *146:30 *195:90 0.00016556
70 *149:10 *195:64 0.000270153
71 *149:10 *195:72 0.00144957
72 *151:16 *195:132 0.000863743
73 *153:22 *195:64 0.000565473
74 *181:20 *195:48 9.65021e-05
75 *182:24 *2180:D 0.000138444
76 *182:24 *195:90 0.000323341
77 *182:46 *425:DIODE 0.000146822
78 *182:46 *195:72 4.44329e-05
79 *182:80 *195:48 9.41704e-05
80 *184:54 *195:38 0.000187765
81 *184:54 *195:48 0.000237368
82 *184:54 *195:64 0
83 *184:54 *195:72 0
84 *184:144 *195:132 0.000649885
85 *184:155 *195:132 0.000212162
86 *187:20 *2180:D 0.000118549
87 *189:52 *195:72 0
88 *190:153 *2180:D 5.3304e-05
89 *191:40 *195:38 0.000313505
90 *191:82 *2180:D 5.41288e-05
91 *192:122 *195:140 0.000163352
*RES
1 *2361:Q *195:6 29.3386 
2 *195:6 *195:30 42.3429 
3 *195:30 *195:38 36.09 
4 *195:38 *195:48 49.4121 
5 *195:48 *195:50 2.52714 
6 *195:50 *195:64 38.2518 
7 *195:64 *195:72 36.2839 
8 *195:72 *425:DIODE 24.5743 
9 *195:72 *2262:B 23 
10 *195:50 *195:90 31.755 
11 *195:90 *233:DIODE 23 
12 *195:90 *2180:D 29.8771 
13 *195:6 *195:118 40.1057 
14 *195:118 *195:120 21.8018 
15 *195:120 *195:130 40.5397 
16 *195:130 *195:132 9.67357 
17 *195:132 *195:140 35.2614 
18 *195:140 *2253:A 23 
19 *195:132 *403:DIODE 23 
20 *195:120 *195:156 32.6589 
21 *195:156 *408:DIODE 23 
22 *195:156 *2254:B1 28.4064 
*END

*D_NET *196 0.0412277
*CONN
*I *232:DIODE I *D sky130_fd_sc_hd__diode_2
*I *416:DIODE I *D sky130_fd_sc_hd__diode_2
*I *2258:A I *D sky130_fd_sc_hd__nand3_2
*I *413:DIODE I *D sky130_fd_sc_hd__diode_2
*I *2257:A1 I *D sky130_fd_sc_hd__a21o_1
*I *2180:C I *D sky130_fd_sc_hd__or4_1
*I *2262:A I *D sky130_fd_sc_hd__and3_1
*I *424:DIODE I *D sky130_fd_sc_hd__diode_2
*I *411:DIODE I *D sky130_fd_sc_hd__diode_2
*I *2256:A I *D sky130_fd_sc_hd__xor2_1
*I *2362:Q O *D sky130_fd_sc_hd__dfrtp_4
*CAP
1 *232:DIODE 0
2 *416:DIODE 0
3 *2258:A 0.00052489
4 *413:DIODE 0.000386499
5 *2257:A1 0
6 *2180:C 8.50057e-05
7 *2262:A 2.65212e-05
8 *424:DIODE 0
9 *411:DIODE 0
10 *2256:A 0
11 *2362:Q 0.000767035
12 *196:117 0.00162298
13 *196:115 0.00183124
14 *196:95 0.000386499
15 *196:93 0.00102064
16 *196:89 0.000546687
17 *196:72 0.000480378
18 *196:70 0.00104506
19 *196:52 0.000319212
20 *196:44 0.00113229
21 *196:26 0.000361777
22 *196:18 0.00114642
23 *196:16 0.00522003
24 *196:14 0.00427812
25 *196:10 0.0023052
26 *2258:A *417:DIODE 7.89586e-06
27 *2258:A *2258:B 0
28 *2258:A *197:68 3.65917e-05
29 *2262:A *198:36 0.000130811
30 *196:14 *199:132 0.000729716
31 *196:44 *198:36 0.000362466
32 *196:44 *218:30 0
33 *196:89 *204:76 0.000211961
34 *414:DIODE *413:DIODE 3.06709e-05
35 *2180:D *2180:C 5.5048e-05
36 *2180:D *196:72 3.7122e-06
37 *2258:C *2258:A 8.71888e-05
38 *2258:C *196:117 0.000139346
39 *2294:A *413:DIODE 9.41704e-05
40 *2362:RESET_B *196:10 4.96717e-05
41 *2376:RESET_B *196:89 9.2057e-05
42 *16:8 *196:14 0
43 *33:16 *196:16 0.00100334
44 *33:16 *196:18 0.000310798
45 *33:16 *196:26 2.81066e-05
46 *33:22 *196:16 0.00148004
47 *38:10 *196:44 0.000497611
48 *42:20 *196:14 0.000128671
49 *48:10 *196:10 0.000827183
50 *71:18 *196:44 0
51 *71:18 *196:52 0.000110913
52 *73:18 *196:10 9.77922e-06
53 *75:38 *196:14 0.00119303
54 *92:8 *196:93 0.000761011
55 *92:8 *196:115 0.00173078
56 *120:16 *196:44 0.00024349
57 *122:31 *196:52 0.000366775
58 *131:18 *196:26 0.000141038
59 *134:16 *196:26 6.90927e-05
60 *138:12 *196:14 0
61 *138:12 *196:70 0
62 *144:24 *196:117 0.00165844
63 *144:26 *196:117 4.08664e-05
64 *147:8 *2258:A 1.94693e-05
65 *156:140 *413:DIODE 0.000137651
66 *166:66 *196:93 0.000630146
67 *166:77 *196:93 0.000129504
68 *166:77 *196:115 8.62876e-05
69 *166:90 *196:115 0.00165371
70 *167:18 *413:DIODE 0.000136743
71 *169:158 *196:70 0
72 *180:58 *196:89 0.000211961
73 *181:38 *2262:A 0.000144501
74 *181:38 *196:44 0.000360771
75 *183:12 *196:14 0.000161316
76 *183:150 *196:14 0.000283051
77 *183:150 *196:70 0.000702857
78 *184:84 *196:44 0.000314329
79 *186:36 *196:44 0
80 *187:20 *196:70 0.000112513
81 *187:20 *196:72 2.42041e-05
*RES
1 *2362:Q *196:10 49.1236 
2 *196:10 *196:14 32.0479 
3 *196:14 *196:16 49.2171 
4 *196:16 *196:18 10.15 
5 *196:18 *196:26 35.3857 
6 *196:26 *2256:A 23 
7 *196:18 *411:DIODE 23 
8 *196:16 *196:44 49.5957 
9 *196:44 *196:52 35.51 
10 *196:52 *424:DIODE 23 
11 *196:44 *2262:A 24.5743 
12 *196:10 *196:70 30.515 
13 *196:70 *196:72 1.57429 
14 *196:72 *2180:C 24.4707 
15 *196:72 *196:89 35.0129 
16 *196:89 *196:93 25.3571 
17 *196:93 *196:95 15 
18 *196:95 *2257:A1 23 
19 *196:95 *413:DIODE 29.0279 
20 *196:93 *196:115 39.0907 
21 *196:115 *196:117 20.6314 
22 *196:117 *2258:A 29.7321 
23 *196:117 *416:DIODE 23 
24 *196:70 *232:DIODE 23 
*END

*D_NET *197 0.0330635
*CONN
*I *2263:A I *D sky130_fd_sc_hd__and3_1
*I *427:DIODE I *D sky130_fd_sc_hd__diode_2
*I *417:DIODE I *D sky130_fd_sc_hd__diode_2
*I *2258:B I *D sky130_fd_sc_hd__nand3_2
*I *2181:D_N I *D sky130_fd_sc_hd__or4b_1
*I *237:DIODE I *D sky130_fd_sc_hd__diode_2
*I *2257:B1 I *D sky130_fd_sc_hd__a21o_1
*I *415:DIODE I *D sky130_fd_sc_hd__diode_2
*I *2363:Q O *D sky130_fd_sc_hd__dfrtp_4
*CAP
1 *2263:A 0.000142457
2 *427:DIODE 0
3 *417:DIODE 0.000245609
4 *2258:B 2.41196e-05
5 *2181:D_N 3.51722e-05
6 *237:DIODE 2.79443e-05
7 *2257:B1 0.000193673
8 *415:DIODE 0
9 *2363:Q 0.00128584
10 *197:90 0.00166309
11 *197:68 0.000422609
12 *197:66 0.0020681
13 *197:46 0.000245556
14 *197:44 0.00112219
15 *197:24 0.000912019
16 *197:20 0.00369255
17 *197:18 0.00260588
18 *197:12 0.00146268
19 *197:20 *2197:C 4.54282e-05
20 *197:20 *2292:B1 0
21 *197:20 *198:20 0
22 *197:20 *198:68 0
23 *197:20 *205:28 8.97295e-05
24 *197:20 *206:40 7.49248e-05
25 *197:20 *210:78 0.00204233
26 *197:20 *220:59 0
27 *197:20 *220:73 0
28 *197:44 *2181:B 0.000175906
29 *197:44 *2181:C 0.000187109
30 *197:44 *210:78 0.000997377
31 *197:46 *2181:B 5.56356e-05
32 *197:46 *2181:C 9.41704e-05
33 *197:66 *234:DIODE 0.000137744
34 *197:66 *198:68 6.12484e-05
35 *2188:B *197:20 0.00010512
36 *2258:A *417:DIODE 7.89586e-06
37 *2258:A *2258:B 0
38 *2258:A *197:68 3.65917e-05
39 *2258:C *197:68 9.67842e-05
40 *2258:C *197:90 0.000209554
41 *2263:C *2263:A 5.3304e-05
42 *2360:RESET_B *197:12 3.61695e-05
43 *2363:CLK *197:12 8.1796e-05
44 *2363:D *197:12 0.000106446
45 *2363:RESET_B *197:12 0.000225426
46 *2386:A *197:90 0.000221084
47 *19:10 *197:66 0.000208199
48 *26:18 *197:24 4.87889e-05
49 *34:12 *197:12 0.000375931
50 *55:10 *197:18 1.61386e-05
51 *55:12 *197:20 0.00363416
52 *55:18 *197:20 0.000233874
53 *93:10 *197:66 0.000548801
54 *97:24 *197:20 0.000166349
55 *97:24 *197:44 0.000177552
56 *144:24 *197:90 0.00187783
57 *144:26 *197:90 5.3304e-05
58 *144:37 *197:20 0.000105799
59 *144:37 *197:44 0.00115984
60 *144:43 *197:20 0.000114092
61 *146:8 *2257:B1 0.00026025
62 *146:8 *197:24 0.000483374
63 *147:8 *417:DIODE 5.41288e-05
64 *167:18 *2257:B1 0.000205913
65 *167:18 *197:24 0.00103421
66 *176:30 *197:90 0.000218176
67 *177:108 *2263:A 0.000135037
68 *177:108 *197:90 0.00025399
69 *181:194 *2263:A 3.2327e-05
70 *191:72 *197:20 0.000287777
71 *195:118 *237:DIODE 2.37508e-05
72 *195:118 *2181:D_N 1.12796e-05
73 *195:118 *197:46 5.13626e-05
*RES
1 *2363:Q *197:12 46.2 
2 *197:12 *197:18 17.9104 
3 *197:18 *197:20 63.8518 
4 *197:20 *197:24 29.9143 
5 *197:24 *415:DIODE 23 
6 *197:24 *2257:B1 27.4536 
7 *197:20 *197:44 33.0421 
8 *197:44 *197:46 3.00357 
9 *197:46 *237:DIODE 23.6214 
10 *197:46 *2181:D_N 23.8493 
11 *197:44 *197:66 39.3007 
12 *197:66 *197:68 2.52714 
13 *197:68 *2258:B 23.4971 
14 *197:68 *417:DIODE 26.3764 
15 *197:66 *197:90 31.6307 
16 *197:90 *427:DIODE 23 
17 *197:90 *2263:A 25.5271 
*END

*D_NET *198 0.0315247
*CONN
*I *234:DIODE I *D sky130_fd_sc_hd__diode_2
*I *2181:A I *D sky130_fd_sc_hd__or4b_1
*I *426:DIODE I *D sky130_fd_sc_hd__diode_2
*I *2262:C I *D sky130_fd_sc_hd__and3_1
*I *422:DIODE I *D sky130_fd_sc_hd__diode_2
*I *2261:A I *D sky130_fd_sc_hd__xnor2_1
*I *2364:Q O *D sky130_fd_sc_hd__dfrtp_2
*CAP
1 *234:DIODE 0.000172659
2 *2181:A 0
3 *426:DIODE 0
4 *2262:C 0
5 *422:DIODE 0
6 *2261:A 0.000133657
7 *2364:Q 4.20491e-05
8 *198:68 0.00241475
9 *198:44 0.00095193
10 *198:36 0.00204033
11 *198:30 0.00138381
12 *198:28 0.000270362
13 *198:20 0.00124689
14 *198:14 0.00338037
15 *198:12 0.00280895
16 *198:10 0.00280895
17 *198:8 4.20491e-05
18 *198:8 *203:44 8.50457e-05
19 *198:12 *219:26 0.000319124
20 *198:20 *2292:B1 7.273e-05
21 *198:20 *220:59 0.000337968
22 *198:20 *220:73 0.000155068
23 *198:68 *206:40 0.00121963
24 *198:68 *210:78 0
25 *2261:B *2261:A 0.000278201
26 *2261:B *198:44 0.000121084
27 *2262:A *198:36 0.000130811
28 *2337:A *198:20 0
29 *16:16 *198:12 0.00043511
30 *19:10 *234:DIODE 0.000128501
31 *19:10 *198:68 0.00181441
32 *56:18 *198:68 9.8788e-06
33 *70:10 *198:28 4.85126e-05
34 *74:10 *198:36 0
35 *97:24 *198:68 0.000116093
36 *115:34 *198:36 0.000443833
37 *122:37 *198:28 0.000138727
38 *126:22 *198:20 5.6241e-05
39 *141:22 *198:68 0.000197269
40 *143:14 *198:12 0.000251068
41 *149:30 *198:68 0.000151253
42 *162:8 *198:20 0
43 *169:44 *198:20 0
44 *169:125 *198:8 8.50457e-05
45 *171:62 *234:DIODE 0.000137533
46 *171:108 *198:12 0.00179774
47 *181:38 *198:28 2.64616e-05
48 *181:38 *198:30 0.000119293
49 *181:38 *198:36 0.000426697
50 *181:72 *198:20 0.000658449
51 *182:32 *198:20 0.000316021
52 *182:32 *198:68 0.00215421
53 *182:44 *198:28 3.47781e-05
54 *182:46 *198:20 5.3304e-05
55 *182:80 *198:68 0.000236321
56 *184:68 *198:36 0
57 *187:36 *198:44 0.000688894
58 *192:38 *198:68 2.11887e-05
59 *196:44 *198:36 0.000362466
60 *197:20 *198:20 0
61 *197:20 *198:68 0
62 *197:66 *234:DIODE 0.000137744
63 *197:66 *198:68 6.12484e-05
*RES
1 *2364:Q *198:8 39.2014 
2 *198:8 *198:10 15 
3 *198:10 *198:12 39.6886 
4 *198:12 *198:14 15 
5 *198:14 *198:20 35.6107 
6 *198:20 *198:28 32.5271 
7 *198:28 *198:30 2.44429 
8 *198:30 *198:36 35.1757 
9 *198:36 *198:44 29.6036 
10 *198:44 *2261:A 26.48 
11 *198:44 *422:DIODE 23 
12 *198:30 *2262:C 23 
13 *198:28 *426:DIODE 23 
14 *198:14 *198:68 58.6007 
15 *198:68 *2181:A 38 
16 *198:68 *234:DIODE 41.48 
*END

*D_NET *199 0.0379343
*CONN
*I *2266:A1 I *D sky130_fd_sc_hd__a21oi_2
*I *433:DIODE I *D sky130_fd_sc_hd__diode_2
*I *437:DIODE I *D sky130_fd_sc_hd__diode_2
*I *2267:B I *D sky130_fd_sc_hd__and3_1
*I *431:DIODE I *D sky130_fd_sc_hd__diode_2
*I *2265:A I *D sky130_fd_sc_hd__xor2_1
*I *236:DIODE I *D sky130_fd_sc_hd__diode_2
*I *2181:C I *D sky130_fd_sc_hd__or4b_1
*I *2270:B I *D sky130_fd_sc_hd__and4_1
*I *2271:B I *D sky130_fd_sc_hd__and4_1
*I *444:DIODE I *D sky130_fd_sc_hd__diode_2
*I *448:DIODE I *D sky130_fd_sc_hd__diode_2
*I *2365:Q O *D sky130_fd_sc_hd__dfrtp_4
*CAP
1 *2266:A1 5.46028e-05
2 *433:DIODE 0
3 *437:DIODE 0
4 *2267:B 0
5 *431:DIODE 0
6 *2265:A 0.000209366
7 *236:DIODE 0
8 *2181:C 0.000258951
9 *2270:B 0
10 *2271:B 0
11 *444:DIODE 0
12 *448:DIODE 0
13 *2365:Q 0
14 *199:142 0.000307202
15 *199:136 0.00161055
16 *199:132 0.00288788
17 *199:122 0.00162833
18 *199:116 0.00134455
19 *199:110 0.0015824
20 *199:92 0.000706804
21 *199:88 0.00288348
22 *199:82 0.00360891
23 *199:76 0.000715056
24 *199:74 0.000891549
25 *199:59 0.000405746
26 *199:40 0.000567084
27 *199:29 0.000299402
28 *199:14 0.000349324
29 *199:10 0.000367684
30 *199:4 0.000960574
31 *2181:C *2181:B 6.08617e-05
32 *2181:C *202:8 4.98398e-05
33 *2266:A1 *200:134 0.000183788
34 *199:10 *200:86 4.587e-05
35 *199:10 *204:30 0.000173673
36 *199:29 *204:18 5.78648e-05
37 *199:29 *204:30 1.76594e-05
38 *199:40 *200:86 1.12508e-05
39 *199:40 *204:30 7.81555e-05
40 *199:59 *2270:C 3.34247e-05
41 *199:59 *2271:C 7.7797e-05
42 *199:59 *201:85 1.21972e-05
43 *199:59 *211:66 7.43025e-06
44 *199:82 *200:6 1.0354e-05
45 *199:82 *200:10 3.14462e-05
46 *199:88 *206:84 2.59307e-05
47 *199:92 *202:8 0.000154414
48 *199:110 *200:12 0.00101213
49 *199:110 *200:42 0.000141724
50 *199:116 *200:12 0.00017908
51 *199:116 *203:56 0.0017553
52 *199:116 *218:58 0.000183547
53 *199:122 *218:58 0.000444828
54 *199:132 *214:10 0
55 *345:DIODE *199:74 4.05745e-05
56 *434:DIODE *2266:A1 5.25436e-05
57 *438:DIODE *199:122 0.000268173
58 *2265:B *2265:A 0.000409468
59 *2366:CLK *199:82 1.21972e-05
60 *2366:CLK *199:88 4.27272e-05
61 *2368:CLK *199:88 5.50833e-05
62 *2368:D *199:88 1.83408e-05
63 *2368:RESET_B *199:92 0.00010252
64 *2373:RESET_B *199:116 0.000557881
65 *2374:RESET_B *199:132 0
66 *16:8 *199:132 0.000262369
67 *21:20 *2265:A 2.02872e-05
68 *21:24 *199:142 0.000271392
69 *31:24 *199:110 0.000162939
70 *31:24 *199:116 0.000267981
71 *33:22 *199:132 6.43168e-06
72 *34:8 *199:110 0
73 *34:8 *199:116 0.000270697
74 *42:20 *199:132 0.000111789
75 *84:12 *199:116 0.000558046
76 *106:68 *199:110 0.00108058
77 *106:88 *199:29 0.000208084
78 *110:10 *199:74 0.000553062
79 *110:10 *199:76 8.02348e-05
80 *110:10 *199:82 0.000297505
81 *119:115 *199:40 0.000184741
82 *119:115 *199:59 1.03955e-05
83 *128:10 *199:14 5.3304e-05
84 *128:10 *199:29 0.000141215
85 *129:39 *199:59 8.50366e-05
86 *135:10 *199:136 0.000392374
87 *141:58 *199:88 2.31693e-05
88 *141:92 *199:74 0.000475976
89 *151:16 *199:29 9.5877e-05
90 *151:28 *199:59 3.7122e-06
91 *151:39 *199:10 2.1744e-05
92 *151:39 *199:40 9.1946e-06
93 *151:90 *199:122 3.27248e-05
94 *151:90 *199:132 0.000326176
95 *151:121 *2266:A1 5.40971e-05
96 *153:8 *199:132 0.000265023
97 *154:8 *199:59 2.64616e-05
98 *154:10 *199:59 4.334e-05
99 *155:8 *199:59 1.3523e-05
100 *156:77 *199:132 0
101 *171:92 *199:142 0.000269151
102 *177:52 *199:88 8.58057e-05
103 *177:68 *199:88 5.17641e-05
104 *177:157 *199:10 2.93431e-05
105 *177:157 *199:74 6.25091e-05
106 *181:72 *199:136 0.00121682
107 *181:78 *199:136 0.000257079
108 *186:117 *199:74 0.00018261
109 *186:117 *199:76 2.8936e-05
110 *186:117 *199:82 8.33604e-05
111 *195:118 *2181:C 0.000291265
112 *195:118 *199:92 7.61229e-06
113 *196:14 *199:132 0.000729716
114 *197:44 *2181:C 0.000187109
115 *197:46 *2181:C 9.41704e-05
*RES
1 *2365:Q *199:4 23 
2 *199:4 *199:10 18.2314 
3 *199:10 *199:14 15.6214 
4 *199:14 *448:DIODE 23 
5 *199:14 *199:29 35.6343 
6 *199:29 *444:DIODE 23 
7 *199:10 *199:40 18.2521 
8 *199:40 *2271:B 23 
9 *199:40 *199:59 36.7736 
10 *199:59 *2270:B 23 
11 *199:4 *199:74 30.95 
12 *199:74 *199:76 1.20143 
13 *199:76 *199:82 25.3571 
14 *199:82 *199:88 43.9793 
15 *199:88 *199:92 22.7679 
16 *199:92 *2181:C 29.3386 
17 *199:92 *236:DIODE 23 
18 *199:82 *199:110 31.5611 
19 *199:110 *199:116 48.3604 
20 *199:116 *199:122 6.50429 
21 *199:122 *199:132 43.6893 
22 *199:132 *199:136 38.0136 
23 *199:136 *199:142 33.6664 
24 *199:142 *2265:A 27.9093 
25 *199:142 *431:DIODE 23 
26 *199:122 *2267:B 23 
27 *199:116 *437:DIODE 23 
28 *199:76 *433:DIODE 38 
29 *199:74 *2266:A1 40.0507 
*END

*D_NET *200 0.02821
*CONN
*I *2266:B1 I *D sky130_fd_sc_hd__a21oi_2
*I *435:DIODE I *D sky130_fd_sc_hd__diode_2
*I *2270:A I *D sky130_fd_sc_hd__and4_1
*I *443:DIODE I *D sky130_fd_sc_hd__diode_2
*I *447:DIODE I *D sky130_fd_sc_hd__diode_2
*I *2271:A I *D sky130_fd_sc_hd__and4_1
*I *235:DIODE I *D sky130_fd_sc_hd__diode_2
*I *2181:B I *D sky130_fd_sc_hd__or4b_1
*I *436:DIODE I *D sky130_fd_sc_hd__diode_2
*I *2267:A I *D sky130_fd_sc_hd__and3_1
*I *2366:Q O *D sky130_fd_sc_hd__dfrtp_2
*CAP
1 *2266:B1 0
2 *435:DIODE 0.000242607
3 *2270:A 0.00025447
4 *443:DIODE 9.63036e-05
5 *447:DIODE 4.25104e-05
6 *2271:A 0
7 *235:DIODE 0
8 *2181:B 0.000332062
9 *436:DIODE 8.62052e-05
10 *2267:A 0.000282371
11 *2366:Q 0.000434452
12 *200:134 0.000597218
13 *200:106 0.000575587
14 *200:95 0.000354331
15 *200:86 0.000183136
16 *200:78 0.000799994
17 *200:72 0.00107581
18 *200:48 0.00081513
19 *200:42 0.00266453
20 *200:14 0.000368576
21 *200:12 0.00151085
22 *200:10 0.00414277
23 *200:6 0.00107627
24 *2267:A *218:58 4.65192e-05
25 *2270:A *211:66 1.56762e-05
26 *200:12 *466:DIODE 0.000183102
27 *200:12 *203:44 0.000240348
28 *200:12 *204:30 0.000935585
29 *200:12 *211:34 1.85903e-05
30 *200:42 *204:30 0.000206558
31 *200:48 *2202:A 0.000179725
32 *200:48 *202:86 9.03052e-06
33 *434:DIODE *435:DIODE 0.000137368
34 *434:DIODE *200:134 5.24457e-05
35 *2181:C *2181:B 6.08617e-05
36 *2202:B *200:48 2.93431e-05
37 *2266:A1 *200:134 0.000183788
38 *2266:A2 *435:DIODE 0
39 *2331:A *200:48 5.3304e-05
40 *2366:CLK *200:10 4.67488e-05
41 *2373:RESET_B *200:12 0.00107911
42 *24:10 *200:12 0.000581376
43 *37:12 *200:48 8.48502e-06
44 *41:24 *200:72 0.00053822
45 *48:18 *200:12 0.000423277
46 *65:12 *2270:A 0
47 *65:12 *200:106 0
48 *65:14 *200:72 0.000261588
49 *65:14 *200:106 0
50 *77:6 *436:DIODE 0.00012612
51 *77:6 *2267:A 0.000398535
52 *84:12 *200:12 0.000266679
53 *106:62 *200:42 0.00113279
54 *106:62 *200:48 0.000189826
55 *106:68 *200:42 3.44543e-05
56 *106:88 *2270:A 1.74872e-05
57 *106:88 *200:78 6.84311e-05
58 *106:88 *200:95 4.74809e-05
59 *106:88 *200:106 8.93066e-05
60 *118:26 *2181:B 0.000140731
61 *118:26 *200:48 9.96611e-05
62 *128:10 *447:DIODE 5.50049e-05
63 *128:14 *200:12 0
64 *141:90 *200:78 0.000318411
65 *144:16 *200:86 0.000395205
66 *151:16 *443:DIODE 0.00014196
67 *151:16 *2270:A 0.000181131
68 *151:22 *2270:A 4.21048e-05
69 *151:28 *2270:A 8.60634e-05
70 *151:39 *200:86 0.000134577
71 *151:121 *200:78 0.000106167
72 *151:121 *200:134 3.28795e-05
73 *171:62 *2181:B 0.000140731
74 *171:62 *200:48 0.000139052
75 *177:157 *200:86 0.000397526
76 *179:30 *200:78 8.51432e-05
77 *179:52 *200:78 0.000134585
78 *180:169 *200:78 0.000169683
79 *184:144 *2270:A 0.000139352
80 *195:130 *2270:A 9.28078e-06
81 *197:44 *2181:B 0.000175906
82 *197:46 *2181:B 5.56356e-05
83 *199:10 *200:86 4.587e-05
84 *199:40 *200:86 1.12508e-05
85 *199:82 *200:6 1.0354e-05
86 *199:82 *200:10 3.14462e-05
87 *199:110 *200:12 0.00101213
88 *199:110 *200:42 0.000141724
89 *199:116 *200:12 0.00017908
*RES
1 *2366:Q *200:6 27.9093 
2 *200:6 *200:10 20.3857 
3 *200:10 *200:12 43.8107 
4 *200:12 *200:14 15 
5 *200:14 *2267:A 28.3857 
6 *200:14 *436:DIODE 24.5743 
7 *200:10 *200:42 49.0439 
8 *200:42 *200:48 24.0832 
9 *200:48 *2181:B 43.8621 
10 *200:48 *235:DIODE 38 
11 *200:6 *200:72 37.1879 
12 *200:72 *200:78 27.0764 
13 *200:78 *200:86 36.3386 
14 *200:86 *2271:A 38 
15 *200:78 *200:95 1.55357 
16 *200:95 *447:DIODE 38.6214 
17 *200:95 *200:106 2.96214 
18 *200:106 *443:DIODE 39.5743 
19 *200:106 *2270:A 43.4479 
20 *200:72 *200:134 5.88286 
21 *200:134 *435:DIODE 26.9771 
22 *200:134 *2266:B1 23 
*END

*D_NET *201 0.0304514
*CONN
*I *2269:A I *D sky130_fd_sc_hd__xor2_1
*I *2270:C I *D sky130_fd_sc_hd__and4_1
*I *2271:D I *D sky130_fd_sc_hd__and4_1
*I *450:DIODE I *D sky130_fd_sc_hd__diode_2
*I *445:DIODE I *D sky130_fd_sc_hd__diode_2
*I *441:DIODE I *D sky130_fd_sc_hd__diode_2
*I *2184:B I *D sky130_fd_sc_hd__or3_2
*I *243:DIODE I *D sky130_fd_sc_hd__diode_2
*I *2367:Q O *D sky130_fd_sc_hd__dfrtp_2
*CAP
1 *2269:A 1.9216e-05
2 *2270:C 4.9297e-05
3 *2271:D 0
4 *450:DIODE 0
5 *445:DIODE 0
6 *441:DIODE 3.32681e-05
7 *2184:B 0
8 *243:DIODE 0
9 *2367:Q 0
10 *201:91 0.000104788
11 *201:85 0.000197893
12 *201:78 0.000126467
13 *201:71 0.00137501
14 *201:69 0.00129235
15 *201:67 0.00190551
16 *201:65 0.0023604
17 *201:54 0.000662174
18 *201:48 0.000655538
19 *201:31 0.000784873
20 *201:22 0.00118152
21 *201:14 0.00144223
22 *201:6 0.000583273
23 *2270:C *211:66 9.84851e-05
24 *201:31 *242:DIODE 8.71888e-05
25 *201:31 *202:44 0.000103485
26 *201:48 *202:44 5.07485e-05
27 *201:67 *209:140 7.23733e-05
28 *201:71 *211:66 0.0020176
29 *201:71 *211:70 1.56542e-05
30 *201:71 *216:8 0.000271168
31 *201:78 *211:66 0.000229249
32 *201:85 *211:66 0.000140927
33 *201:91 *204:18 1.70999e-06
34 *360:DIODE *201:48 0.000219383
35 *380:DIODE *201:22 8.41241e-05
36 *380:DIODE *201:31 5.3304e-05
37 *492:DIODE *201:71 1.59094e-05
38 *2234:A *201:48 2.18409e-05
39 *2296:A1 *201:14 0.000271906
40 *2359:CLK *201:48 0.000135037
41 *2359:D *2269:A 5.3304e-05
42 *2359:D *201:48 6.60116e-05
43 *17:8 *201:22 0.000582627
44 *17:22 *201:22 0.000119943
45 *21:32 *201:71 7.51785e-05
46 *27:14 *201:65 0.000214685
47 *46:10 *201:67 0.0024747
48 *70:16 *441:DIODE 0.000188301
49 *70:16 *201:65 0.000714226
50 *74:10 *201:48 0.000109377
51 *82:12 *201:67 0.000307985
52 *88:6 *201:22 0.000770144
53 *96:46 *201:67 0.00068933
54 *99:29 *201:65 9.58714e-05
55 *101:24 *201:67 0.000141894
56 *105:16 *201:48 0.000107212
57 *116:34 *2269:A 1.47394e-05
58 *116:34 *201:48 6.07863e-05
59 *129:39 *201:91 0.000156176
60 *130:60 *201:54 0
61 *131:14 *201:48 0.000128571
62 *131:42 *201:48 9.5877e-05
63 *138:28 *201:67 0.000315476
64 *139:12 *201:67 0.000218404
65 *140:14 *201:14 0
66 *140:14 *201:22 0.00082367
67 *142:14 *201:14 0.000914367
68 *145:10 *201:67 0
69 *151:28 *2270:C 3.51823e-05
70 *151:39 *201:91 3.35253e-05
71 *152:26 *201:67 0.000418371
72 *153:45 *201:48 1.11037e-05
73 *154:8 *201:78 5.56356e-05
74 *154:8 *201:85 8.65377e-05
75 *166:38 *201:14 0.000141975
76 *167:44 *201:14 0.000274402
77 *167:48 *201:14 3.04021e-05
78 *169:176 *201:22 0.000272196
79 *172:58 *201:65 0.00035517
80 *172:62 *441:DIODE 0.000188301
81 *172:62 *201:65 0.000355014
82 *184:16 *201:71 0.000696494
83 *184:20 *201:71 0.00114482
84 *186:22 *201:54 0.000203941
85 *188:22 *201:54 0
86 *199:59 *2270:C 3.34247e-05
87 *199:59 *201:85 1.21972e-05
*RES
1 *2367:Q *201:6 38 
2 *201:6 *201:14 46.53 
3 *201:14 *201:22 39.4429 
4 *201:22 *243:DIODE 23 
5 *201:22 *201:31 5.40643 
6 *201:31 *2184:B 23 
7 *201:31 *201:48 39.8393 
8 *201:48 *201:54 32.9621 
9 *201:54 *441:DIODE 25.0507 
10 *201:54 *201:65 28.0086 
11 *201:65 *201:67 50.8536 
12 *201:67 *201:69 15 
13 *201:69 *201:71 35.8771 
14 *201:71 *445:DIODE 23 
15 *201:71 *201:78 2.52714 
16 *201:78 *450:DIODE 23 
17 *201:78 *201:85 1.57429 
18 *201:85 *201:91 32.2579 
19 *201:91 *2271:D 23 
20 *201:85 *2270:C 24.595 
21 *201:48 *2269:A 23.6214 
*END

*D_NET *202 0.0345728
*CONN
*I *2271:C I *D sky130_fd_sc_hd__and4_1
*I *449:DIODE I *D sky130_fd_sc_hd__diode_2
*I *452:DIODE I *D sky130_fd_sc_hd__diode_2
*I *2273:A1 I *D sky130_fd_sc_hd__o21ba_1
*I *2184:A I *D sky130_fd_sc_hd__or3_2
*I *242:DIODE I *D sky130_fd_sc_hd__diode_2
*I *2368:Q O *D sky130_fd_sc_hd__dfrtp_1
*CAP
1 *2271:C 0.000102123
2 *449:DIODE 0
3 *452:DIODE 0
4 *2273:A1 0.000371506
5 *2184:A 0
6 *242:DIODE 8.88012e-05
7 *2368:Q 0.000351287
8 *202:96 0.000335511
9 *202:92 0.00182512
10 *202:86 0.00216846
11 *202:62 0.00181612
12 *202:44 0.00211858
13 *202:32 0.00230529
14 *202:24 0.00211235
15 *202:18 0.00118502
16 *202:8 0.0017208
17 *2273:A1 *205:58 1.29944e-05
18 *202:18 *300:DIODE 9.41704e-05
19 *202:62 *313:DIODE 0.000139352
20 *202:62 *205:58 0.000280603
21 *202:62 *218:52 6.8999e-05
22 *472:DIODE *202:92 8.62876e-05
23 *472:DIODE *202:96 0.000390685
24 *2181:C *202:8 4.98398e-05
25 *2273:A2 *2273:A1 5.5387e-05
26 *2330:A *202:44 0.000190889
27 *17:28 *2273:A1 8.57485e-05
28 *21:24 *202:24 0.000897284
29 *39:24 *202:62 0.000221707
30 *60:8 *202:18 0.000124078
31 *60:8 *202:86 0.00115187
32 *60:10 *202:18 7.65863e-06
33 *60:12 *202:18 0.00139948
34 *63:12 *202:86 0.000184969
35 *80:14 *202:62 0.000640198
36 *94:18 *202:24 0.000897284
37 *96:12 *242:DIODE 9.5877e-05
38 *96:12 *202:44 0.000146138
39 *113:18 *202:62 3.63897e-05
40 *113:26 *202:32 0.000298503
41 *113:26 *202:62 0.000701014
42 *117:14 *202:18 0.00133273
43 *118:26 *202:86 0.000208076
44 *119:38 *202:18 0.000219258
45 *119:97 *202:96 0.000475031
46 *119:115 *2271:C 0.000225901
47 *119:115 *202:96 0.000269994
48 *123:12 *202:32 0.000114083
49 *130:52 *202:44 0.00190552
50 *130:60 *202:44 9.65021e-05
51 *132:18 *2273:A1 0.000113398
52 *132:18 *202:62 0.00092667
53 *134:103 *202:62 0.000240341
54 *138:26 *202:18 0.000100526
55 *144:16 *202:92 0.000180224
56 *155:8 *2271:C 0.000100069
57 *155:8 *202:96 0.000133309
58 *155:14 *202:92 1.02029e-05
59 *167:26 *202:32 0.000111852
60 *171:62 *202:18 0.00019672
61 *171:62 *202:86 0.000205999
62 *171:82 *202:24 0.000160205
63 *177:136 *202:92 8.4047e-05
64 *182:136 *202:92 0.00168446
65 *185:78 *202:92 6.713e-06
66 *189:20 *2273:A1 5.16949e-05
67 *189:24 *2273:A1 0.000178235
68 *199:59 *2271:C 7.7797e-05
69 *199:92 *202:8 0.000154414
70 *200:48 *202:86 9.03052e-06
71 *201:31 *242:DIODE 8.71888e-05
72 *201:31 *202:44 0.000103485
73 *201:48 *202:44 5.07485e-05
*RES
1 *2368:Q *202:8 42.4329 
2 *202:8 *202:18 39.5671 
3 *202:18 *202:24 42.47 
4 *202:24 *202:32 35.0336 
5 *202:32 *202:44 30.5121 
6 *202:44 *242:DIODE 25.0507 
7 *202:44 *2184:A 23 
8 *202:24 *202:62 46.5479 
9 *202:62 *2273:A1 44.96 
10 *202:62 *452:DIODE 38 
11 *202:8 *202:86 30.9914 
12 *202:86 *202:92 38.1379 
13 *202:92 *202:96 23.2443 
14 *202:96 *449:DIODE 23 
15 *202:96 *2271:C 26.5214 
*END

*D_NET *203 0.0533408
*CONN
*I *467:DIODE I *D sky130_fd_sc_hd__diode_2
*I *2280:B I *D sky130_fd_sc_hd__and4_1
*I *460:DIODE I *D sky130_fd_sc_hd__diode_2
*I *2277:B I *D sky130_fd_sc_hd__nand3_2
*I *245:DIODE I *D sky130_fd_sc_hd__diode_2
*I *2185:A I *D sky130_fd_sc_hd__or3_1
*I *456:DIODE I *D sky130_fd_sc_hd__diode_2
*I *2275:A I *D sky130_fd_sc_hd__nor2_1
*I *319:DIODE I *D sky130_fd_sc_hd__diode_2
*I *2218:A I *D sky130_fd_sc_hd__or4b_1
*I *454:DIODE I *D sky130_fd_sc_hd__diode_2
*I *2274:A I *D sky130_fd_sc_hd__and2_1
*I *2369:Q O *D sky130_fd_sc_hd__dfrtp_4
*CAP
1 *467:DIODE 0
2 *2280:B 0
3 *460:DIODE 0
4 *2277:B 5.53339e-05
5 *245:DIODE 0
6 *2185:A 7.64404e-05
7 *456:DIODE 0.000144368
8 *2275:A 0
9 *319:DIODE 0
10 *2218:A 0.000248134
11 *454:DIODE 0
12 *2274:A 0.000108957
13 *2369:Q 9.25681e-05
14 *203:154 0.000160416
15 *203:120 0.000912526
16 *203:116 0.0024082
17 *203:103 0.0017666
18 *203:96 0.000965959
19 *203:78 0.001418
20 *203:74 0.00293483
21 *203:68 0.00131747
22 *203:66 0.000988003
23 *203:58 0.00108629
24 *203:56 0.00111684
25 *203:50 0.000985671
26 *203:44 0.00210093
27 *203:42 0.00188121
28 *203:26 0.00133132
29 *203:20 0.00245164
30 *203:12 0.00257361
31 *203:8 0.00143689
32 *2218:A *321:DIODE 0.000125213
33 *2218:A *209:22 9.84794e-05
34 *2218:A *209:24 5.67058e-05
35 *2218:A *211:78 0.000228903
36 *2277:B *204:63 5.88615e-05
37 *203:20 *279:DIODE 0.000157108
38 *203:20 *208:62 8.48502e-06
39 *203:26 *2284:A 0.000188526
40 *203:26 *208:62 0.00198863
41 *203:26 *220:59 0.000234534
42 *203:56 *216:14 6.343e-05
43 *203:58 *216:14 0.000150727
44 *203:66 *216:14 0.000156193
45 *203:68 *204:63 7.73774e-05
46 *203:74 *2277:A 2.64616e-05
47 *203:74 *204:63 5.52339e-05
48 *203:74 *208:32 6.64679e-05
49 *203:78 *206:46 0.000981607
50 *203:78 *208:6 0.000127821
51 *203:78 *208:10 9.58714e-05
52 *203:96 *208:32 6.7177e-06
53 *203:116 *205:90 0
54 *383:DIODE *203:12 0.00012959
55 *461:DIODE *203:68 4.67488e-05
56 *522:DIODE *203:78 0.000225282
57 *2185:B *2185:A 0.000187129
58 *2185:B *203:120 0.000171296
59 *2185:C *2185:A 5.67058e-05
60 *2274:B *2274:A 0.000113217
61 *2274:B *203:26 0.000100047
62 *2275:B *456:DIODE 5.50049e-05
63 *2275:B *203:103 4.21378e-05
64 *2293:A *203:116 5.09373e-05
65 *2299:A2 *203:74 0.000269925
66 *2373:RESET_B *203:44 0.000328695
67 *16:8 *203:66 0.000142688
68 *30:16 *203:44 0.000584728
69 *31:24 *203:56 0.000298981
70 *33:26 *203:50 1.05235e-05
71 *33:39 *203:50 4.33845e-05
72 *34:8 *203:44 0
73 *34:8 *203:56 0.00175112
74 *55:20 *203:78 0.000487357
75 *92:8 *203:74 0.000791226
76 *92:8 *203:96 0.0018022
77 *92:8 *203:116 0.00104087
78 *95:42 *203:116 0
79 *95:46 *203:120 0.000617876
80 *119:24 *203:96 0
81 *119:85 *203:96 0.000343929
82 *129:22 *203:116 9.82508e-05
83 *130:38 *203:116 0.000250167
84 *132:28 *203:154 5.3304e-05
85 *134:175 *203:116 0
86 *135:16 *203:12 7.67664e-05
87 *151:61 *203:44 0
88 *151:61 *203:154 0.000163586
89 *154:10 *203:154 4.06408e-05
90 *156:14 *456:DIODE 9.41704e-05
91 *156:49 *203:68 4.67488e-05
92 *156:89 *203:20 0.000320097
93 *156:93 *203:20 0.000135037
94 *156:93 *203:26 0.00112004
95 *156:101 *203:26 0.000535884
96 *156:140 *203:66 6.63464e-06
97 *156:153 *203:154 8.50457e-05
98 *157:25 *203:26 0.00139818
99 *158:10 *203:96 2.33476e-05
100 *162:20 *203:96 0.000238194
101 *166:90 *203:116 0.000362081
102 *169:125 *203:44 8.1641e-05
103 *171:66 *203:78 0.00021677
104 *171:135 *203:44 0
105 *175:86 *203:44 0
106 *175:90 *203:44 0
107 *179:82 *203:12 0.000454153
108 *179:82 *203:20 0.000348098
109 *179:84 *203:20 0.000177817
110 *179:100 *203:20 0.000565088
111 *180:94 *203:78 0.000221992
112 *181:142 *2218:A 0.000220715
113 *181:142 *203:78 0.000207843
114 *182:18 *203:74 3.41785e-05
115 *182:136 *456:DIODE 0.000136563
116 *182:136 *203:103 4.67488e-05
117 *183:150 *203:66 0.00029321
118 *185:78 *203:116 0
119 *198:8 *203:44 8.50457e-05
120 *199:116 *203:56 0.0017553
121 *200:12 *203:44 0.000240348
*RES
1 *2369:Q *203:8 39.5536 
2 *203:8 *203:12 34.2021 
3 *203:12 *203:20 21.17 
4 *203:20 *203:26 46.8764 
5 *203:26 *2274:A 25.5479 
6 *203:26 *454:DIODE 23 
7 *203:12 *203:42 15 
8 *203:42 *203:44 35.7114 
9 *203:44 *203:50 32.5271 
10 *203:50 *203:56 40.7893 
11 *203:56 *203:58 4.90929 
12 *203:58 *203:66 39.8807 
13 *203:66 *203:68 4.90929 
14 *203:68 *203:74 30.4943 
15 *203:74 *203:78 40.3957 
16 *203:78 *2218:A 29.8357 
17 *203:78 *319:DIODE 23 
18 *203:74 *203:96 39.795 
19 *203:96 *2275:A 23 
20 *203:96 *203:103 1.09786 
21 *203:103 *456:DIODE 26.0243 
22 *203:103 *203:116 46.1336 
23 *203:116 *203:120 34.2021 
24 *203:120 *2185:A 25.5271 
25 *203:120 *245:DIODE 23 
26 *203:68 *2277:B 24.4707 
27 *203:66 *460:DIODE 23 
28 *203:58 *203:154 33.5836 
29 *203:154 *2280:B 23 
30 *203:56 *467:DIODE 23 
*END

*D_NET *204 0.0386213
*CONN
*I *2280:A I *D sky130_fd_sc_hd__and4_1
*I *459:DIODE I *D sky130_fd_sc_hd__diode_2
*I *244:DIODE I *D sky130_fd_sc_hd__diode_2
*I *2184:C I *D sky130_fd_sc_hd__or3_2
*I *462:DIODE I *D sky130_fd_sc_hd__diode_2
*I *2278:A1 I *D sky130_fd_sc_hd__o21a_1
*I *2277:A I *D sky130_fd_sc_hd__nand3_2
*I *466:DIODE I *D sky130_fd_sc_hd__diode_2
*I *2370:Q O *D sky130_fd_sc_hd__dfrtp_4
*CAP
1 *2280:A 0
2 *459:DIODE 0
3 *244:DIODE 0
4 *2184:C 0
5 *462:DIODE 0
6 *2278:A1 0.000358796
7 *2277:A 3.21736e-05
8 *466:DIODE 0.000282572
9 *2370:Q 0.00111342
10 *204:120 0.000131175
11 *204:112 0.000233183
12 *204:104 0.00251118
13 *204:98 0.00240917
14 *204:82 0.00162294
15 *204:76 0.00189871
16 *204:63 0.00100637
17 *204:57 0.00100121
18 *204:45 0.000789738
19 *204:30 0.00198475
20 *204:18 0.00340869
21 *204:6 0.00294809
22 *466:DIODE *216:14 9.91386e-05
23 *204:18 *209:115 8.62876e-05
24 *204:57 *2280:C 7.25499e-05
25 *204:76 *221:8 0.000162254
26 *204:82 *208:38 0
27 *461:DIODE *204:63 8.17328e-05
28 *463:DIODE *2278:A1 0.000213869
29 *2238:C *204:45 1.41129e-05
30 *2238:C *204:57 2.64616e-05
31 *2270:D *204:18 4.92284e-05
32 *2277:B *204:63 5.88615e-05
33 *2370:CLK *204:6 0.00010018
34 *2370:D *204:6 0.000222305
35 *18:10 *204:120 0.000165593
36 *22:8 *204:30 0.000571081
37 *48:8 *204:112 0.000137361
38 *48:8 *204:120 0.000178235
39 *56:10 *204:18 2.65165e-06
40 *74:10 *204:120 0.000163361
41 *96:12 *204:104 0.00158593
42 *104:20 *204:18 0.000895949
43 *106:68 *204:30 5.78088e-06
44 *106:88 *204:18 3.65742e-06
45 *113:32 *204:112 0.000125544
46 *113:32 *204:120 0.000179936
47 *115:66 *204:57 0.00026175
48 *115:80 *466:DIODE 0
49 *115:80 *204:45 0.000231039
50 *120:16 *204:112 0.000108681
51 *126:14 *2278:A1 4.96717e-05
52 *126:14 *204:82 1.54424e-05
53 *127:26 *204:30 0.000837999
54 *128:14 *466:DIODE 0
55 *129:39 *204:18 8.74369e-07
56 *130:38 *204:76 0.000187612
57 *130:52 *204:104 0.00114368
58 *132:28 *204:57 2.19764e-05
59 *133:10 *466:DIODE 9.85586e-06
60 *134:95 *204:104 4.67488e-05
61 *151:22 *204:18 3.55815e-05
62 *151:28 *204:18 0.00010762
63 *151:39 *204:18 0
64 *151:45 *204:30 0
65 *151:45 *204:45 5.56356e-05
66 *151:45 *204:57 9.41704e-05
67 *153:22 *204:82 9.35082e-05
68 *153:22 *204:104 0.000271906
69 *154:10 *204:57 0
70 *156:49 *204:63 9.66585e-05
71 *157:31 *2278:A1 5.67058e-05
72 *159:24 *2278:A1 0.000139346
73 *160:6 *204:57 0.000181125
74 *161:10 *204:57 0.000599561
75 *161:22 *204:57 2.93335e-05
76 *166:66 *204:76 0.000404501
77 *166:66 *204:82 0.000623279
78 *169:158 *204:57 2.35118e-06
79 *175:64 *204:82 0.000711903
80 *180:58 *204:76 0.000310171
81 *182:14 *204:57 4.66208e-05
82 *182:14 *204:63 0.000394192
83 *182:18 *2277:A 2.64616e-05
84 *182:18 *204:63 0.000295858
85 *184:140 *204:18 3.7473e-07
86 *185:84 *204:112 0.000110922
87 *190:44 *204:82 0
88 *191:94 *204:82 0.00191536
89 *194:20 *204:76 3.76959e-05
90 *194:20 *204:82 0.000105516
91 *196:89 *204:76 0.000211961
92 *199:10 *204:30 0.000173673
93 *199:29 *204:18 5.78648e-05
94 *199:29 *204:30 1.76594e-05
95 *199:40 *204:30 7.81555e-05
96 *200:12 *466:DIODE 0.000183102
97 *200:12 *204:30 0.000935585
98 *200:42 *204:30 0.000206558
99 *201:91 *204:18 1.70999e-06
100 *203:68 *204:63 7.73774e-05
101 *203:74 *2277:A 2.64616e-05
102 *203:74 *204:63 5.52339e-05
*RES
1 *2370:Q *204:6 45.0607 
2 *204:6 *204:18 49.3961 
3 *204:18 *204:30 33.5882 
4 *204:30 *466:DIODE 42.6607 
5 *204:30 *204:45 18.0036 
6 *204:45 *204:57 45.4529 
7 *204:57 *204:63 8.88643 
8 *204:63 *2277:A 23.6214 
9 *204:63 *204:76 30.2043 
10 *204:76 *204:82 46.6514 
11 *204:82 *2278:A1 30.54 
12 *204:82 *462:DIODE 23 
13 *204:76 *204:98 15 
14 *204:98 *204:104 44.0179 
15 *204:104 *204:112 33.1279 
16 *204:112 *204:120 34.3086 
17 *204:120 *2184:C 23 
18 *204:112 *244:DIODE 23 
19 *204:57 *459:DIODE 23 
20 *204:45 *2280:A 23 
*END

*D_NET *205 0.0335058
*CONN
*I *2196:A I *D sky130_fd_sc_hd__xnor2_1
*I *270:DIODE I *D sky130_fd_sc_hd__diode_2
*I *240:DIODE I *D sky130_fd_sc_hd__diode_2
*I *2183:C I *D sky130_fd_sc_hd__or4_2
*I *278:DIODE I *D sky130_fd_sc_hd__diode_2
*I *2199:A3 I *D sky130_fd_sc_hd__a31o_1
*I *2197:C I *D sky130_fd_sc_hd__and4_1
*I *274:DIODE I *D sky130_fd_sc_hd__diode_2
*I *2343:Q O *D sky130_fd_sc_hd__dfrtp_4
*CAP
1 *2196:A 0.000209139
2 *270:DIODE 0
3 *240:DIODE 0
4 *2183:C 0.000310112
5 *278:DIODE 0
6 *2199:A3 0
7 *2197:C 0.000538232
8 *274:DIODE 0
9 *2343:Q 8.32623e-05
10 *205:94 0.000332576
11 *205:90 0.00126663
12 *205:70 0.000490676
13 *205:68 0.00262275
14 *205:58 0.00343094
15 *205:28 0.00109938
16 *205:22 0.000941135
17 *205:14 0.00120673
18 *205:8 0.00304195
19 *2183:C *241:DIODE 0.000272915
20 *2197:C *2197:D 0.000481931
21 *2197:C *220:59 0.000133106
22 *205:8 *220:38 0.000137651
23 *205:14 *2199:B1 0
24 *205:28 *220:59 0.000159285
25 *205:58 *218:52 7.15258e-05
26 *205:68 *215:16 1.27344e-05
27 *205:70 *241:DIODE 0.000138859
28 *337:DIODE *205:90 0.000101708
29 *2196:B *205:90 0
30 *2273:A1 *205:58 1.29944e-05
31 *2374:D *205:58 0.000314495
32 *17:28 *205:58 0.000177673
33 *21:20 *2197:C 3.81192e-05
34 *34:12 *205:14 4.95081e-05
35 *34:12 *205:22 0.00012377
36 *40:18 *205:28 0.000144449
37 *51:22 *205:28 0.000769239
38 *103:34 *205:90 0
39 *119:163 *205:90 0.000218382
40 *119:174 *205:90 4.90185e-05
41 *119:185 *205:90 0.000458709
42 *130:38 *205:68 0.000390699
43 *130:46 *205:58 0.000184634
44 *130:50 *205:58 0.000654927
45 *132:28 *205:58 2.77716e-05
46 *134:103 *205:58 0.00103563
47 *134:105 *205:58 0.000254812
48 *134:159 *205:58 2.81216e-05
49 *134:159 *205:68 0.000151974
50 *135:10 *205:14 0.000445981
51 *144:22 *205:68 0.000475298
52 *156:14 *205:68 0.0011027
53 *156:38 *205:58 0.000770752
54 *156:38 *205:68 0.000210055
55 *156:42 *205:58 0.000480121
56 *156:77 *205:14 0.000197188
57 *156:77 *205:58 0.000370091
58 *170:127 *2183:C 2.83509e-05
59 *170:127 *205:70 2.83509e-05
60 *170:127 *205:90 4.42603e-05
61 *171:92 *205:28 0.000673594
62 *173:62 *205:68 1.81712e-05
63 *179:100 *205:14 0
64 *179:104 *205:28 0.000165753
65 *180:58 *205:58 0.000558886
66 *180:67 *205:58 0.000191148
67 *180:82 *205:58 0.000237012
68 *180:107 *205:68 0
69 *183:113 *205:22 0.000341187
70 *183:113 *205:28 5.3304e-05
71 *185:14 *205:68 8.96745e-05
72 *185:78 *205:68 0.000318737
73 *185:78 *205:90 0.000677578
74 *190:114 *205:58 0.000104515
75 *194:20 *205:58 1.34589e-05
76 *194:41 *205:58 0.000267587
77 *194:47 *205:14 0.000304839
78 *194:47 *205:58 0.00126907
79 *194:49 *205:14 2.17544e-05
80 *194:55 *205:14 3.6608e-05
81 *194:73 *205:22 5.91105e-05
82 *194:73 *205:28 0.00136669
83 *194:95 *205:28 0
84 *197:20 *2197:C 4.54282e-05
85 *197:20 *205:28 8.97295e-05
86 *202:62 *205:58 0.000280603
87 *203:116 *205:90 0
*RES
1 *2343:Q *205:8 39.5743 
2 *205:8 *205:14 32.0893 
3 *205:14 *205:22 36.815 
4 *205:22 *205:28 38.8007 
5 *205:28 *274:DIODE 38 
6 *205:28 *2197:C 47.1971 
7 *205:22 *2199:A3 23 
8 *205:14 *278:DIODE 23 
9 *205:8 *205:58 59.8332 
10 *205:58 *205:68 46.7654 
11 *205:68 *205:70 2.52714 
12 *205:70 *2183:C 27.8057 
13 *205:70 *240:DIODE 23 
14 *205:68 *205:90 39.2564 
15 *205:90 *205:94 16.5743 
16 *205:94 *270:DIODE 23 
17 *205:94 *2196:A 26.8529 
*END

*D_NET *206 0.0293056
*CONN
*I *2183:B I *D sky130_fd_sc_hd__or4_2
*I *239:DIODE I *D sky130_fd_sc_hd__diode_2
*I *468:DIODE I *D sky130_fd_sc_hd__diode_2
*I *2280:C I *D sky130_fd_sc_hd__and4_1
*I *464:DIODE I *D sky130_fd_sc_hd__diode_2
*I *2279:A I *D sky130_fd_sc_hd__xnor2_1
*I *2371:Q O *D sky130_fd_sc_hd__dfrtp_2
*CAP
1 *2183:B 0
2 *239:DIODE 0
3 *468:DIODE 0
4 *2280:C 0.000136331
5 *464:DIODE 0
6 *2279:A 0.000264251
7 *2371:Q 0
8 *206:103 0.000273539
9 *206:88 0.000505912
10 *206:84 0.00196999
11 *206:56 0.000187965
12 *206:52 0.00162639
13 *206:46 0.00411029
14 *206:40 0.00231124
15 *206:38 0.00196946
16 *206:14 0.00101074
17 *206:12 0.00145132
18 *206:4 0.00116098
19 *2280:C *216:10 6.23461e-05
20 *206:12 *213:44 8.50457e-05
21 *206:40 *210:78 0.000942586
22 *206:56 *216:10 9.94675e-05
23 *206:103 *207:14 8.85496e-05
24 *262:DIODE *206:38 0.00022308
25 *2189:A *206:84 0
26 *2256:B *2279:A 7.61229e-06
27 *2279:B *2279:A 0.000146956
28 *2279:B *206:14 3.66663e-05
29 *2371:RESET_B *206:12 0.000130725
30 *2371:RESET_B *206:38 9.77405e-05
31 *43:10 *2279:A 0.000142678
32 *43:10 *206:14 4.08664e-05
33 *55:20 *206:52 0.000146487
34 *59:18 *206:84 0.000123852
35 *95:12 *206:103 1.0092e-05
36 *95:18 *206:84 0.00217964
37 *95:20 *206:84 2.38704e-05
38 *132:28 *2280:C 0.000396623
39 *141:8 *206:52 0
40 *141:22 *206:40 0.000194647
41 *141:58 *206:52 0
42 *141:58 *206:84 0
43 *141:114 *206:84 0
44 *141:114 *206:103 3.86225e-05
45 *149:30 *206:40 0.000173453
46 *159:40 *206:14 0.000375135
47 *160:6 *2280:C 0.000262858
48 *161:10 *2280:C 6.01895e-05
49 *161:10 *206:56 0.000110913
50 *166:54 *206:38 0.000312459
51 *170:127 *206:88 9.09483e-05
52 *170:127 *206:103 8.3967e-05
53 *174:18 *206:12 0.000155209
54 *174:18 *206:38 2.39806e-05
55 *174:156 *206:40 0.000184825
56 *181:142 *206:52 0.00143636
57 *184:54 *206:12 0.000277814
58 *184:114 *206:103 6.00097e-05
59 *186:36 *206:12 0.000170498
60 *189:24 *206:38 0.000439951
61 *192:38 *206:40 0.000307347
62 *192:57 *206:52 0.000134533
63 *192:57 *206:84 7.39034e-05
64 *197:20 *206:40 7.49248e-05
65 *198:68 *206:40 0.00121963
66 *199:88 *206:84 2.59307e-05
67 *203:78 *206:46 0.000981607
68 *204:57 *2280:C 7.25499e-05
*RES
1 *2371:Q *206:4 23 
2 *206:4 *206:12 40.8336 
3 *206:12 *206:14 10.15 
4 *206:14 *2279:A 27.8264 
5 *206:14 *464:DIODE 23 
6 *206:4 *206:38 24.8393 
7 *206:38 *206:40 38.1764 
8 *206:40 *206:46 41.1029 
9 *206:46 *206:52 36.5843 
10 *206:52 *206:56 16.5536 
11 *206:56 *2280:C 43.2821 
12 *206:56 *468:DIODE 38 
13 *206:46 *206:84 36.54 
14 *206:84 *206:88 18.0036 
15 *206:88 *239:DIODE 23 
16 *206:88 *206:103 34.5779 
17 *206:103 *2183:B 23 
*END

*D_NET *207 0.0104603
*CONN
*I *2281:A I *D sky130_fd_sc_hd__xor2_1
*I *2183:A I *D sky130_fd_sc_hd__or4_2
*I *2372:Q O *D sky130_fd_sc_hd__dfrtp_1
*CAP
1 *2281:A 4.55603e-05
2 *2183:A 0
3 *2372:Q 0.000324475
4 *207:29 0.00160238
5 *207:23 0.00172811
6 *207:14 0.000465679
7 *207:6 0.00096144
8 *2353:CLK *2281:A 1.69038e-05
9 *2372:RESET_B *207:6 2.95843e-05
10 *23:20 *2281:A 0
11 *39:32 *2281:A 0.000104918
12 *39:32 *207:29 0.000480473
13 *44:10 *207:29 0.00250759
14 *62:8 *207:14 0.000123234
15 *62:8 *207:29 0.000291637
16 *95:12 *207:14 6.10629e-05
17 *95:42 *207:14 4.67488e-05
18 *141:58 *207:29 0
19 *141:114 *207:14 0.000660781
20 *141:114 *207:29 0
21 *160:12 *2281:A 7.45953e-05
22 *160:12 *207:29 0.000345329
23 *163:50 *207:29 0.000301982
24 *170:127 *207:14 0.000179725
25 *173:12 *207:29 2.54169e-06
26 *173:79 *207:29 1.23662e-05
27 *186:96 *2281:A 4.64025e-06
28 *206:103 *207:14 8.85496e-05
*RES
1 *2372:Q *207:6 26.9564 
2 *207:6 *207:14 41.3514 
3 *207:14 *2183:A 23 
4 *207:6 *207:23 17.0507 
5 *207:23 *207:29 43.0588 
6 *207:29 *2281:A 47.5588 
*END

*D_NET *208 0.0311401
*CONN
*I *2197:D I *D sky130_fd_sc_hd__and4_1
*I *275:DIODE I *D sky130_fd_sc_hd__diode_2
*I *279:DIODE I *D sky130_fd_sc_hd__diode_2
*I *2199:B1 I *D sky130_fd_sc_hd__a31o_1
*I *241:DIODE I *D sky130_fd_sc_hd__diode_2
*I *2183:D I *D sky130_fd_sc_hd__or4_2
*I *2344:Q O *D sky130_fd_sc_hd__dfrtp_2
*CAP
1 *2197:D 0.000219949
2 *275:DIODE 0
3 *279:DIODE 7.60269e-05
4 *2199:B1 0.000136601
5 *241:DIODE 0.000127946
6 *2183:D 0
7 *2344:Q 0.00123375
8 *208:66 0.000316643
9 *208:62 0.000960709
10 *208:40 0.000241985
11 *208:38 0.00285869
12 *208:32 0.00270206
13 *208:14 0.000127946
14 *208:12 0.00112073
15 *208:10 0.0012048
16 *208:6 0.00205456
17 *2197:D *220:59 3.51895e-05
18 *208:38 *313:DIODE 3.83778e-05
19 *208:38 *211:48 0.000236715
20 *208:38 *213:182 0.000134572
21 *208:66 *220:59 2.71586e-05
22 *2183:C *241:DIODE 0.000272915
23 *2197:B *2197:D 0.000221084
24 *2197:C *2197:D 0.000481931
25 *2299:A2 *208:32 0.000636503
26 *2344:RESET_B *208:6 4.82056e-05
27 *21:20 *2197:D 7.67664e-05
28 *23:20 *208:12 0.00041918
29 *26:32 *208:32 8.4047e-05
30 *44:10 *208:12 4.59441e-05
31 *55:20 *208:6 0.00020484
32 *80:14 *208:32 0.000594599
33 *80:14 *208:38 0.000142958
34 *100:125 *208:12 0.00198699
35 *119:24 *208:12 0.000392314
36 *119:24 *208:32 0.000617269
37 *119:44 *2197:D 5.00237e-05
38 *119:85 *208:12 8.09921e-05
39 *126:20 *208:38 0.000133316
40 *134:43 *208:38 0.00165734
41 *134:169 *208:12 0.00169855
42 *134:175 *208:12 0.00015335
43 *156:89 *279:DIODE 0.000189857
44 *157:25 *208:62 0.000398014
45 *170:127 *241:DIODE 0.000212401
46 *179:100 *279:DIODE 0.000323913
47 *179:100 *2199:B1 0.000158822
48 *179:100 *208:40 3.67392e-05
49 *180:94 *208:6 0.000232113
50 *182:24 *208:32 0.00039125
51 *183:37 *208:38 0
52 *183:51 *208:38 2.24048e-05
53 *183:101 *2199:B1 0.000209639
54 *183:101 *208:38 0.000176011
55 *183:101 *208:40 4.9858e-05
56 *190:38 *208:38 0.000539245
57 *190:44 *208:38 0.00153922
58 *190:88 *208:38 0
59 *190:101 *208:38 8.62876e-05
60 *191:90 *208:32 0
61 *191:90 *208:38 2.81934e-05
62 *191:94 *208:38 0
63 *194:47 *208:38 0
64 *194:49 *208:38 0
65 *194:61 *279:DIODE 8.48502e-06
66 *194:61 *208:62 9.41704e-05
67 *203:20 *279:DIODE 0.000157108
68 *203:20 *208:62 8.48502e-06
69 *203:26 *208:62 0.00198863
70 *203:74 *208:32 6.64679e-05
71 *203:78 *208:6 0.000127821
72 *203:78 *208:10 9.58714e-05
73 *203:96 *208:32 6.7177e-06
74 *204:82 *208:38 0
75 *205:14 *2199:B1 0
76 *205:70 *241:DIODE 0.000138859
*RES
1 *2344:Q *208:6 38.3907 
2 *208:6 *208:10 16.0979 
3 *208:10 *208:12 35.3593 
4 *208:12 *208:14 15 
5 *208:14 *2183:D 23 
6 *208:14 *241:DIODE 27.4329 
7 *208:6 *208:32 35.4346 
8 *208:32 *208:38 46.8661 
9 *208:38 *208:40 0.849286 
10 *208:40 *2199:B1 40.9621 
11 *208:40 *279:DIODE 41.9564 
12 *208:38 *208:62 37.0607 
13 *208:62 *208:66 16.5536 
14 *208:66 *275:DIODE 38 
15 *208:66 *2197:D 45.4157 
*END

*D_NET *209 0.0366151
*CONN
*I *248:DIODE I *D sky130_fd_sc_hd__diode_2
*I *2186:A I *D sky130_fd_sc_hd__or4b_1
*I *2218:C I *D sky130_fd_sc_hd__or4b_1
*I *2204:A1 I *D sky130_fd_sc_hd__a21oi_1
*I *287:DIODE I *D sky130_fd_sc_hd__diode_2
*I *2203:A I *D sky130_fd_sc_hd__and3_2
*I *284:DIODE I *D sky130_fd_sc_hd__diode_2
*I *301:DIODE I *D sky130_fd_sc_hd__diode_2
*I *2211:A I *D sky130_fd_sc_hd__and4_2
*I *2202:A I *D sky130_fd_sc_hd__xor2_1
*I *282:DIODE I *D sky130_fd_sc_hd__diode_2
*I *320:DIODE I *D sky130_fd_sc_hd__diode_2
*I *2345:Q O *D sky130_fd_sc_hd__dfrtp_4
*CAP
1 *248:DIODE 0
2 *2186:A 0.000127252
3 *2218:C 0
4 *2204:A1 0.000135636
5 *287:DIODE 0
6 *2203:A 0
7 *284:DIODE 0
8 *301:DIODE 0
9 *2211:A 0
10 *2202:A 0.000187677
11 *282:DIODE 0
12 *320:DIODE 2.4288e-05
13 *2345:Q 0.000235663
14 *209:142 0.000864498
15 *209:140 0.00179477
16 *209:115 0.000284087
17 *209:107 0.00350696
18 *209:105 0.00359058
19 *209:86 4.5339e-05
20 *209:75 0.000580529
21 *209:63 0.000713051
22 *209:61 0.000196063
23 *209:59 0.00010888
24 *209:57 0.0014288
25 *209:43 0.000508703
26 *209:39 0.00200662
27 *209:24 0.000566714
28 *209:22 0.000814247
29 *209:14 0.00201012
30 *209:10 0.000427575
31 *2186:A *212:48 0.000175903
32 *2204:A1 *2204:B1 5.44109e-05
33 *209:39 *211:78 0.000827886
34 *209:57 *211:78 0.00133279
35 *209:57 *211:96 0.000713353
36 *209:57 *213:116 0
37 *209:61 *211:96 0.000233359
38 *209:63 *211:96 0.000140935
39 *209:75 *303:DIODE 0.000185778
40 *209:75 *210:28 5.18573e-05
41 *209:75 *211:96 0.000215035
42 *209:75 *212:104 0.00026528
43 *209:75 *212:118 9.41704e-05
44 *209:86 *213:118 0.000113235
45 *209:105 *211:96 3.46013e-05
46 *209:105 *213:118 0
47 *209:115 *2204:B1 5.2346e-05
48 *209:142 *212:20 0.000271648
49 *209:142 *212:48 0.00014375
50 *286:DIODE *209:61 5.56279e-05
51 *2218:A *209:22 9.84794e-05
52 *2218:A *209:24 5.67058e-05
53 *2225:A2 *209:107 0.000400204
54 *2339:A *209:140 5.79427e-05
55 *18:10 *209:75 4.95928e-05
56 *37:12 *2202:A 8.75163e-05
57 *37:12 *209:43 0.000341491
58 *46:8 *2202:A 0.000397759
59 *46:8 *209:43 0.000302325
60 *46:10 *209:140 7.86584e-05
61 *75:22 *209:22 0
62 *75:22 *209:39 0.000189309
63 *75:32 *209:22 6.92184e-05
64 *96:20 *209:140 0.000194559
65 *96:46 *209:140 0.000225618
66 *98:8 *2186:A 4.05745e-05
67 *98:8 *209:142 0.000947174
68 *99:29 *209:22 0.000582395
69 *106:34 *209:22 0.000502087
70 *106:130 *209:105 8.01646e-05
71 *110:8 *2204:A1 2.29228e-05
72 *112:12 *209:107 0.000185874
73 *116:34 *209:10 6.59159e-05
74 *116:50 *209:140 7.87027e-05
75 *120:14 *209:10 0.000108625
76 *122:57 *209:75 0.00015711
77 *125:6 *209:107 0.00103933
78 *134:39 *209:142 0.000115855
79 *138:32 *209:75 8.13613e-05
80 *149:10 *209:10 0.000251155
81 *149:30 *209:140 0
82 *152:36 *209:43 0.000737223
83 *162:8 *209:140 0.000105541
84 *169:44 *209:140 0.000165947
85 *169:202 *209:86 0.000112294
86 *171:62 *2202:A 0.00029549
87 *171:62 *209:43 0.000195791
88 *172:158 *209:39 0.000753413
89 *172:158 *209:57 0.000173483
90 *174:6 *209:142 0.000177604
91 *174:10 *209:142 0.00026457
92 *181:26 *209:22 0.000295187
93 *181:142 *320:DIODE 5.79559e-05
94 *181:142 *209:22 8.52481e-05
95 *181:142 *209:24 0.000128152
96 *184:54 *209:39 0
97 *184:54 *209:57 0
98 *185:80 *209:107 0.000502786
99 *188:110 *209:75 0.000183547
100 *195:64 *209:10 0.000113805
101 *200:48 *2202:A 0.000179725
102 *201:67 *209:140 7.23733e-05
103 *204:18 *209:115 8.62876e-05
*RES
1 *2345:Q *209:10 43.5411 
2 *209:10 *209:14 8.39947 
3 *209:14 *209:22 42.7304 
4 *209:22 *209:24 1.57429 
5 *209:24 *320:DIODE 23.6214 
6 *209:24 *209:39 29.9971 
7 *209:39 *209:43 25.6264 
8 *209:43 *282:DIODE 23 
9 *209:43 *2202:A 29.3386 
10 *209:39 *209:57 27.9643 
11 *209:57 *209:59 15 
12 *209:59 *209:61 2.52714 
13 *209:61 *209:63 1.57429 
14 *209:63 *209:75 42.3457 
15 *209:75 *2211:A 23 
16 *209:63 *209:86 31.5536 
17 *209:86 *301:DIODE 23 
18 *209:61 *284:DIODE 23 
19 *209:59 *2203:A 23 
20 *209:57 *209:105 19.3707 
21 *209:105 *209:107 48.7407 
22 *209:107 *209:115 32.2993 
23 *209:115 *287:DIODE 23 
24 *209:115 *2204:A1 25.0507 
25 *209:22 *2218:C 23 
26 *209:14 *209:140 36.4662 
27 *209:140 *209:142 17.7729 
28 *209:142 *2186:A 25.5479 
29 *209:142 *248:DIODE 23 
*END

*D_NET *210 0.0340316
*CONN
*I *2186:B I *D sky130_fd_sc_hd__or4b_1
*I *2219:A I *D sky130_fd_sc_hd__or4_1
*I *322:DIODE I *D sky130_fd_sc_hd__diode_2
*I *249:DIODE I *D sky130_fd_sc_hd__diode_2
*I *289:DIODE I *D sky130_fd_sc_hd__diode_2
*I *2204:B1 I *D sky130_fd_sc_hd__a21oi_1
*I *285:DIODE I *D sky130_fd_sc_hd__diode_2
*I *2203:B I *D sky130_fd_sc_hd__and3_2
*I *302:DIODE I *D sky130_fd_sc_hd__diode_2
*I *2211:B I *D sky130_fd_sc_hd__and4_2
*I *2346:Q O *D sky130_fd_sc_hd__dfrtp_4
*CAP
1 *2186:B 0
2 *2219:A 0
3 *322:DIODE 0.000199312
4 *249:DIODE 0
5 *289:DIODE 0
6 *2204:B1 0.000208388
7 *285:DIODE 0
8 *2203:B 0
9 *302:DIODE 0
10 *2211:B 0
11 *2346:Q 0
12 *210:125 0.000329151
13 *210:101 0.000673872
14 *210:90 0.00182123
15 *210:78 0.00247145
16 *210:76 0.00155732
17 *210:58 0.0020236
18 *210:52 0.00204962
19 *210:28 0.000342228
20 *210:20 0.00118
21 *210:18 0.00117176
22 *210:16 0.000617501
23 *210:12 0.000589091
24 *210:10 0.00140438
25 *210:4 0.0014366
26 *210:90 *217:20 0.000201133
27 *210:90 *218:38 0.000182123
28 *210:101 *212:32 4.96811e-06
29 *210:125 *218:38 3.78847e-05
30 *337:DIODE *210:58 2.7237e-05
31 *407:DIODE *210:58 0.000152787
32 *2204:A1 *2204:B1 5.44109e-05
33 *2254:A2 *210:58 5.41385e-05
34 *2254:B1 *210:58 7.21314e-05
35 *19:10 *210:10 0.00128794
36 *51:14 *210:101 0
37 *56:18 *210:10 0.00165528
38 *93:10 *210:10 0
39 *95:24 *322:DIODE 0.000157818
40 *96:20 *322:DIODE 0.000143423
41 *96:34 *322:DIODE 3.1645e-05
42 *96:34 *210:101 1.74874e-06
43 *96:46 *210:10 0.000319882
44 *96:46 *210:12 0.000157263
45 *96:46 *210:52 0.000390599
46 *97:24 *210:78 0.000445795
47 *100:99 *210:76 0.000141438
48 *107:10 *210:125 0.000211411
49 *110:8 *2204:B1 7.51453e-06
50 *117:10 *210:76 0.000136349
51 *118:24 *210:58 0.000446495
52 *118:26 *210:10 0
53 *118:26 *210:52 0
54 *124:16 *210:101 0.000688057
55 *129:12 *210:16 0.000338391
56 *129:12 *210:18 0.000429091
57 *129:12 *210:20 0.00117701
58 *129:12 *210:28 0.000267773
59 *134:175 *210:58 4.45416e-05
60 *145:6 *210:58 0.00144365
61 *151:90 *210:125 3.7122e-06
62 *174:156 *210:78 0.000182585
63 *175:33 *210:125 0.000211411
64 *184:26 *210:28 0.000235781
65 *185:114 *210:28 5.54209e-05
66 *192:38 *210:78 0.00038125
67 *195:156 *210:58 8.94756e-05
68 *197:20 *210:78 0.00204233
69 *197:44 *210:78 0.000997377
70 *198:68 *210:78 0
71 *206:40 *210:78 0.000942586
72 *209:75 *210:28 5.18573e-05
73 *209:115 *2204:B1 5.2346e-05
*RES
1 *2346:Q *210:4 23 
2 *210:4 *210:10 48.3396 
3 *210:10 *210:12 2.08179 
4 *210:12 *210:16 18.9564 
5 *210:16 *210:18 4.90929 
6 *210:18 *210:20 13.0086 
7 *210:20 *210:28 36.3179 
8 *210:28 *2211:B 23 
9 *210:20 *302:DIODE 23 
10 *210:18 *2203:B 23 
11 *210:16 *285:DIODE 23 
12 *210:12 *210:52 20.4271 
13 *210:52 *210:58 38.9014 
14 *210:58 *2204:B1 27.205 
15 *210:58 *289:DIODE 23 
16 *210:4 *210:76 18.0036 
17 *210:76 *210:78 41.6979 
18 *210:78 *210:90 28.8164 
19 *210:90 *249:DIODE 23 
20 *210:90 *210:101 39.6529 
21 *210:101 *322:DIODE 27.1221 
22 *210:101 *2219:A 23 
23 *210:90 *210:125 35.4893 
24 *210:125 *2186:B 23 
*END

*D_NET *211 0.0482365
*CONN
*I *2207:A I *D sky130_fd_sc_hd__nand2_1
*I *294:DIODE I *D sky130_fd_sc_hd__diode_2
*I *2211:C I *D sky130_fd_sc_hd__and4_2
*I *303:DIODE I *D sky130_fd_sc_hd__diode_2
*I *321:DIODE I *D sky130_fd_sc_hd__diode_2
*I *2218:D_N I *D sky130_fd_sc_hd__or4b_1
*I *251:DIODE I *D sky130_fd_sc_hd__diode_2
*I *2186:D_N I *D sky130_fd_sc_hd__or4b_1
*I *292:DIODE I *D sky130_fd_sc_hd__diode_2
*I *2206:A I *D sky130_fd_sc_hd__or2_1
*I *2347:Q O *D sky130_fd_sc_hd__dfrtp_4
*CAP
1 *2207:A 0.000228546
2 *294:DIODE 0
3 *2211:C 0
4 *303:DIODE 4.44564e-05
5 *321:DIODE 8.84084e-05
6 *2218:D_N 0
7 *251:DIODE 0
8 *2186:D_N 0
9 *292:DIODE 0
10 *2206:A 0.000126771
11 *2347:Q 0.000320226
12 *211:118 0.000281379
13 *211:111 0.000798983
14 *211:96 0.00146648
15 *211:78 0.00157841
16 *211:70 0.00354151
17 *211:66 0.00359653
18 *211:62 0.00216807
19 *211:60 0.00181625
20 *211:48 0.000203002
21 *211:38 0.000720942
22 *211:34 0.00170877
23 *211:14 0.00149537
24 *211:10 0.00289479
25 *211:8 0.00241901
26 *211:48 *213:182 0.000238881
27 *211:111 *212:96 0.000100069
28 *211:111 *212:104 3.6608e-05
29 *211:111 *212:118 0.000146805
30 *286:DIODE *211:96 2.02872e-05
31 *550:DIODE *211:10 0.000159651
32 *550:DIODE *211:34 5.26733e-06
33 *559:DIODE *211:10 0.000141879
34 *559:DIODE *211:60 5.55911e-05
35 *2218:A *321:DIODE 0.000125213
36 *2218:A *211:78 0.000228903
37 *2235:A2 *211:111 1.47709e-05
38 *2235:B1 *211:111 0.000261458
39 *2270:A *211:66 1.56762e-05
40 *2270:C *211:66 9.84851e-05
41 *2354:RESET_B *211:60 0.000111277
42 *2362:CLK *211:10 2.95125e-05
43 *25:10 *211:111 2.39778e-06
44 *28:28 *211:111 1.142e-05
45 *31:24 *211:10 2.05503e-05
46 *48:10 *211:38 0.00156349
47 *48:10 *211:48 0.000178517
48 *58:18 *2207:A 5.33601e-05
49 *58:18 *211:60 0.00191603
50 *58:18 *211:118 5.56306e-05
51 *58:26 *211:60 0.000110913
52 *67:26 *211:60 0.000479757
53 *73:18 *211:38 0.00155105
54 *73:18 *211:48 0.000178517
55 *75:22 *211:78 0.000110913
56 *102:10 *211:14 0
57 *106:34 *211:78 0
58 *106:108 *211:78 0
59 *106:108 *211:96 0
60 *106:130 *211:96 1.7403e-05
61 *109:8 *211:96 2.14404e-05
62 *111:8 *2206:A 5.47808e-05
63 *111:10 *211:10 0
64 *111:10 *211:14 0
65 *111:10 *211:60 0
66 *113:18 *211:8 0.000137625
67 *119:133 *211:60 0.00037927
68 *122:49 *211:111 3.60531e-05
69 *126:10 *211:10 2.54749e-05
70 *126:10 *211:14 0.000683687
71 *126:10 *211:60 7.20682e-05
72 *126:40 *211:60 2.472e-05
73 *134:39 *211:48 2.64616e-05
74 *134:65 *211:48 6.17437e-06
75 *138:32 *303:DIODE 0.000185778
76 *138:32 *211:96 0.000620495
77 *150:35 *2207:A 0.000169339
78 *151:22 *211:66 5.56279e-05
79 *151:28 *211:66 0.000232125
80 *151:61 *211:34 3.11577e-05
81 *170:34 *211:14 0
82 *174:181 *211:48 5.3304e-05
83 *175:185 *211:34 0.000627888
84 *175:219 *211:10 9.92307e-06
85 *175:219 *211:60 0.000364568
86 *184:20 *211:70 0.00178583
87 *184:144 *211:66 0.000817617
88 *184:155 *211:66 0.000269036
89 *188:102 *211:111 1.09834e-05
90 *192:120 *211:60 0.00074037
91 *192:122 *2207:A 3.99803e-05
92 *192:122 *211:60 0.000654525
93 *192:122 *211:118 5.09988e-05
94 *195:140 *211:60 0.000161121
95 *199:59 *211:66 7.43025e-06
96 *200:12 *211:34 1.85903e-05
97 *201:71 *211:66 0.0020176
98 *201:71 *211:70 1.56542e-05
99 *201:78 *211:66 0.000229249
100 *201:85 *211:66 0.000140927
101 *208:38 *211:48 0.000236715
102 *209:39 *211:78 0.000827886
103 *209:57 *211:78 0.00133279
104 *209:57 *211:96 0.000713353
105 *209:61 *211:96 0.000233359
106 *209:63 *211:96 0.000140935
107 *209:75 *303:DIODE 0.000185778
108 *209:75 *211:96 0.000215035
109 *209:105 *211:96 3.46013e-05
*RES
1 *2347:Q *211:8 44.3386 
2 *211:8 *211:10 6.48357 
3 *211:10 *211:14 45.4293 
4 *211:14 *2206:A 25.5271 
5 *211:14 *292:DIODE 23 
6 *211:10 *211:34 45.1629 
7 *211:34 *211:38 32.7729 
8 *211:38 *211:48 35.9864 
9 *211:48 *2186:D_N 23 
10 *211:38 *251:DIODE 23 
11 *211:8 *211:60 54.375 
12 *211:60 *211:62 15 
13 *211:62 *211:66 43.5207 
14 *211:66 *211:70 35.6314 
15 *211:70 *211:78 49.1579 
16 *211:78 *2218:D_N 23 
17 *211:78 *321:DIODE 24.5743 
18 *211:70 *211:96 32.1721 
19 *211:96 *303:DIODE 25.0507 
20 *211:96 *211:111 41.1029 
21 *211:111 *2211:C 23 
22 *211:60 *211:118 1.55357 
23 *211:118 *294:DIODE 38 
24 *211:118 *2207:A 42.5779 
*END

*D_NET *212 0.0347943
*CONN
*I *304:DIODE I *D sky130_fd_sc_hd__diode_2
*I *2211:D I *D sky130_fd_sc_hd__and4_2
*I *300:DIODE I *D sky130_fd_sc_hd__diode_2
*I *2210:A I *D sky130_fd_sc_hd__inv_2
*I *250:DIODE I *D sky130_fd_sc_hd__diode_2
*I *2186:C I *D sky130_fd_sc_hd__or4b_1
*I *323:DIODE I *D sky130_fd_sc_hd__diode_2
*I *2219:B I *D sky130_fd_sc_hd__or4_1
*I *2348:Q O *D sky130_fd_sc_hd__dfrtp_2
*CAP
1 *304:DIODE 0
2 *2211:D 0
3 *300:DIODE 0.000125948
4 *2210:A 0.000216492
5 *250:DIODE 0
6 *2186:C 0
7 *323:DIODE 0.000574636
8 *2219:B 0
9 *2348:Q 0.000693137
10 *212:118 0.000493659
11 *212:104 0.000774517
12 *212:96 0.00113489
13 *212:63 0.000304761
14 *212:48 0.000536775
15 *212:32 0.00124627
16 *212:20 0.00177367
17 *212:14 0.00113245
18 *212:12 0.00186168
19 *212:10 0.0034321
20 *212:8 0.0015814
21 *324:DIODE *323:DIODE 9.32855e-05
22 *560:DIODE *212:8 0.000171821
23 *2182:D *212:96 0.00047674
24 *2186:A *212:48 0.000175903
25 *2346:RESET_B *212:12 0.000314329
26 *2348:CLK *212:8 0.000132572
27 *7:17 *212:12 0.000372506
28 *7:17 *212:14 8.22445e-05
29 *7:17 *212:20 2.11066e-05
30 *18:10 *212:118 5.055e-05
31 *21:24 *212:12 0.000506449
32 *21:24 *212:20 0.000273078
33 *25:10 *212:118 3.32626e-05
34 *28:28 *212:104 0.000110258
35 *49:14 *212:8 8.85299e-06
36 *51:14 *212:32 0.000708892
37 *60:8 *212:10 0.000409157
38 *60:8 *212:12 9.56882e-05
39 *60:12 *212:12 0.00139431
40 *60:12 *212:14 7.29637e-05
41 *60:12 *212:20 0.00145507
42 *73:18 *212:63 0.000464582
43 *95:24 *323:DIODE 4.36654e-05
44 *95:24 *212:32 4.65096e-05
45 *96:34 *212:32 1.55766e-05
46 *106:51 *212:12 0.000135839
47 *109:12 *212:96 0.000603444
48 *119:38 *300:DIODE 2.82035e-05
49 *119:38 *2210:A 0.00022288
50 *121:8 *212:32 5.79559e-05
51 *122:49 *212:96 0.00105405
52 *130:20 *212:96 0.00113802
53 *134:39 *212:20 0.000522371
54 *134:39 *212:48 0.000506279
55 *138:26 *212:20 0.000127194
56 *159:6 *2210:A 4.67488e-05
57 *159:18 *212:20 0.000838293
58 *169:94 *212:63 0.000298503
59 *171:82 *212:12 0.00034135
60 *174:181 *212:63 0.000110913
61 *175:33 *212:63 0.000110913
62 *176:17 *212:12 0.000194318
63 *176:52 *212:12 0.000777432
64 *176:63 *212:12 0.000175884
65 *176:102 *212:118 0.00017238
66 *176:142 *212:10 0
67 *176:142 *212:12 0
68 *188:110 *212:118 7.36675e-05
69 *191:72 *2210:A 6.17437e-06
70 *191:90 *212:63 0.000135037
71 *193:72 *212:118 3.7122e-06
72 *195:120 *212:12 0.0015594
73 *195:156 *212:10 0.000535073
74 *195:156 *212:12 0.000449042
75 *202:18 *300:DIODE 9.41704e-05
76 *209:75 *212:104 0.00026528
77 *209:75 *212:118 9.41704e-05
78 *209:142 *212:20 0.000271648
79 *209:142 *212:48 0.00014375
80 *210:101 *212:32 4.96811e-06
81 *211:111 *212:96 0.000100069
82 *211:111 *212:104 3.6608e-05
83 *211:111 *212:118 0.000146805
*RES
1 *2348:Q *212:8 48.15 
2 *212:8 *212:10 18.8086 
3 *212:10 *212:12 50.1493 
4 *212:12 *212:14 1.20143 
5 *212:14 *212:20 41.0793 
6 *212:20 *212:32 42.8221 
7 *212:32 *2219:B 23 
8 *212:32 *323:DIODE 29.815 
9 *212:20 *212:48 6.71143 
10 *212:48 *2186:C 23 
11 *212:48 *212:63 37.7886 
12 *212:63 *250:DIODE 23 
13 *212:14 *2210:A 41.9771 
14 *212:12 *300:DIODE 39.5743 
15 *212:10 *212:96 40.085 
16 *212:96 *212:104 34.5571 
17 *212:104 *212:118 39.2593 
18 *212:118 *2211:D 23 
19 *212:104 *304:DIODE 23 
*END

*D_NET *213 0.057225
*CONN
*I *313:DIODE I *D sky130_fd_sc_hd__diode_2
*I *2215:A1 I *D sky130_fd_sc_hd__a21oi_1
*I *370:DIODE I *D sky130_fd_sc_hd__diode_2
*I *2237:C I *D sky130_fd_sc_hd__and4_1
*I *2179:C I *D sky130_fd_sc_hd__nand4_1
*I *228:DIODE I *D sky130_fd_sc_hd__diode_2
*I *315:DIODE I *D sky130_fd_sc_hd__diode_2
*I *2216:A I *D sky130_fd_sc_hd__and4_1
*I *310:DIODE I *D sky130_fd_sc_hd__diode_2
*I *2214:A1 I *D sky130_fd_sc_hd__o21ai_1
*I *327:DIODE I *D sky130_fd_sc_hd__diode_2
*I *2221:A1 I *D sky130_fd_sc_hd__a31o_1
*I *2349:Q O *D sky130_fd_sc_hd__dfrtp_4
*CAP
1 *313:DIODE 0.000163714
2 *2215:A1 8.81957e-05
3 *370:DIODE 0
4 *2237:C 0
5 *2179:C 0.000198819
6 *228:DIODE 0
7 *315:DIODE 0
8 *2216:A 0
9 *310:DIODE 0
10 *2214:A1 0.000163344
11 *327:DIODE 0
12 *2221:A1 0
13 *2349:Q 0.000469177
14 *213:190 0.000636306
15 *213:182 0.00136156
16 *213:152 0.000253153
17 *213:146 0.00437022
18 *213:144 0.0045258
19 *213:130 0.000192366
20 *213:122 0.00073706
21 *213:118 0.00141724
22 *213:116 0.00188477
23 *213:103 0.00133959
24 *213:92 0.000860911
25 *213:79 0.000607455
26 *213:72 0.000488539
27 *213:58 0.00138708
28 *213:50 0.00159527
29 *213:44 0.00129292
30 *213:30 0.000979034
31 *213:24 0.00163254
32 *213:20 0.00223899
33 *213:12 0.00216533
34 *213:10 0.000968133
35 *2179:C *2179:D 0.000102093
36 *213:30 *214:36 2.33476e-05
37 *213:58 *214:38 0.00124809
38 *213:58 *214:53 9.23705e-06
39 *213:146 *214:100 0.00331101
40 *384:DIODE *213:130 0
41 *385:DIODE *213:130 0.000140958
42 *2214:A2 *2214:A1 7.19932e-05
43 *2221:A3 *213:72 0.000209134
44 *2237:B *213:44 0.000137368
45 *2349:CLK *213:10 1.54424e-05
46 *2349:RESET_B *213:10 9.4713e-05
47 *2377:RESET_B *213:20 8.06804e-06
48 *18:10 *213:58 0.00123727
49 *29:10 *213:116 0.00129767
50 *39:24 *313:DIODE 3.3746e-05
51 *39:24 *213:182 0.000540154
52 *41:8 *213:12 5.37416e-05
53 *49:14 *213:118 0
54 *49:14 *213:144 0
55 *51:12 *213:190 0.000206171
56 *60:12 *213:20 8.57577e-05
57 *81:14 *213:152 2.5415e-05
58 *95:20 *213:190 0
59 *100:75 *2214:A1 3.6071e-05
60 *100:84 *2214:A1 2.0412e-05
61 *100:84 *213:103 0.000124931
62 *100:84 *213:116 0.000175403
63 *100:99 *213:116 5.58003e-05
64 *106:130 *213:118 0
65 *106:134 *213:122 0.000610082
66 *106:140 *213:130 3.18261e-05
67 *106:168 *213:72 5.884e-05
68 *106:178 *213:72 1.1314e-05
69 *115:32 *213:72 8.264e-05
70 *115:54 *213:72 6.53382e-05
71 *116:58 *213:190 5.73834e-05
72 *116:78 *213:130 4.6318e-06
73 *117:26 *2215:A1 9.41704e-05
74 *121:8 *213:24 9.66668e-05
75 *123:8 *213:72 5.97296e-05
76 *123:8 *213:79 1.59094e-05
77 *123:8 *213:92 0.000158006
78 *130:52 *213:190 0.00046952
79 *131:44 *213:92 0.000919705
80 *134:43 *213:12 0.000812575
81 *134:43 *213:182 0.000602625
82 *141:28 *213:58 0.000630105
83 *141:28 *213:72 5.3304e-05
84 *141:28 *213:79 4.08664e-05
85 *141:28 *213:92 0.000462643
86 *151:94 *213:12 0
87 *159:18 *213:20 8.36198e-05
88 *159:40 *213:24 0.000713336
89 *159:40 *213:30 0.00014398
90 *169:22 *213:116 0.000428721
91 *169:40 *213:50 0.000899517
92 *169:202 *213:116 0.000448495
93 *169:202 *213:118 0.000172554
94 *169:228 *213:118 8.2828e-05
95 *171:170 *213:130 0
96 *171:180 *213:122 0.000389569
97 *171:180 *213:130 5.50106e-05
98 *171:198 *213:122 0.00161373
99 *175:18 *213:20 4.21921e-05
100 *175:24 *213:20 0.000147489
101 *175:24 *213:182 0
102 *175:33 *213:182 0
103 *175:75 *213:10 1.39396e-05
104 *178:6 *213:20 0.000488027
105 *181:133 *213:58 8.65972e-05
106 *184:54 *213:30 2.04554e-05
107 *184:54 *213:44 0.000605473
108 *184:54 *213:116 0.00164656
109 *186:36 *213:44 0.000605873
110 *189:52 *213:30 4.97477e-05
111 *190:88 *213:12 0.00021459
112 *192:122 *213:152 4.08641e-05
113 *192:126 *2179:C 1.32939e-05
114 *193:10 *213:72 6.10809e-05
115 *193:74 *213:146 4.79612e-05
116 *193:87 *213:146 4.04598e-06
117 *194:32 *213:182 0.000118083
118 *195:30 *213:92 0.000618536
119 *195:72 *213:30 0
120 *202:62 *313:DIODE 0.000139352
121 *206:12 *213:44 8.50457e-05
122 *208:38 *313:DIODE 3.83778e-05
123 *208:38 *213:182 0.000134572
124 *209:57 *213:116 0
125 *209:86 *213:118 0.000113235
126 *209:105 *213:118 0
127 *211:48 *213:182 0.000238881
*RES
1 *2349:Q *213:10 44.235 
2 *213:10 *213:12 11.4136 
3 *213:12 *213:20 44.21 
4 *213:20 *213:24 31.3436 
5 *213:24 *213:30 20.9657 
6 *213:30 *213:44 43.0914 
7 *213:44 *213:50 40.15 
8 *213:50 *213:58 41.97 
9 *213:58 *213:72 39.1661 
10 *213:72 *2221:A1 23 
11 *213:58 *213:79 0.621429 
12 *213:79 *327:DIODE 23 
13 *213:79 *213:92 47.8557 
14 *213:92 *2214:A1 25.7757 
15 *213:92 *213:103 1.57429 
16 *213:103 *310:DIODE 23 
17 *213:103 *213:116 48.7539 
18 *213:116 *213:118 11.5896 
19 *213:118 *213:122 37.0607 
20 *213:122 *213:130 33.9357 
21 *213:130 *2216:A 23 
22 *213:122 *315:DIODE 23 
23 *213:118 *213:144 18.3143 
24 *213:144 *213:146 67.3214 
25 *213:146 *213:152 31.2014 
26 *213:152 *228:DIODE 23 
27 *213:152 *2179:C 26.8736 
28 *213:30 *2237:C 38 
29 *213:24 *370:DIODE 23 
30 *213:12 *213:182 15.9914 
31 *213:182 *213:190 38.3479 
32 *213:190 *2215:A1 39.0979 
33 *213:182 *313:DIODE 40.7757 
*END

*D_NET *214 0.0469846
*CONN
*I *371:DIODE I *D sky130_fd_sc_hd__diode_2
*I *2237:D I *D sky130_fd_sc_hd__and4_1
*I *2179:D I *D sky130_fd_sc_hd__nand4_1
*I *229:DIODE I *D sky130_fd_sc_hd__diode_2
*I *316:DIODE I *D sky130_fd_sc_hd__diode_2
*I *2216:B I *D sky130_fd_sc_hd__and4_1
*I *2221:B1 I *D sky130_fd_sc_hd__a31o_1
*I *330:DIODE I *D sky130_fd_sc_hd__diode_2
*I *2350:Q O *D sky130_fd_sc_hd__dfrtp_4
*CAP
1 *371:DIODE 0
2 *2237:D 0
3 *2179:D 0.000203493
4 *229:DIODE 0
5 *316:DIODE 0
6 *2216:B 0.000448022
7 *2221:B1 2.16434e-05
8 *330:DIODE 0
9 *2350:Q 0
10 *214:106 0.000309866
11 *214:100 0.00222023
12 *214:98 0.00228352
13 *214:87 0.000419885
14 *214:68 0.00127541
15 *214:66 0.00139427
16 *214:53 0.00133447
17 *214:38 0.0017315
18 *214:36 0.0024801
19 *214:26 0.00153162
20 *214:22 0.00334546
21 *214:10 0.00447897
22 *214:6 0.00142082
23 *607:DIODE *214:22 0.000135037
24 *2179:C *2179:D 0.000102093
25 *2244:A *2216:B 5.50049e-05
26 *2288:B1 *214:10 3.63676e-05
27 *2358:RESET_B *214:68 0.000149062
28 *2377:D *214:22 5.3304e-05
29 *2377:RESET_B *214:22 0.00136821
30 *7:17 *214:36 0
31 *18:10 *214:38 0.000145267
32 *18:10 *214:53 1.9731e-05
33 *31:14 *214:68 0
34 *33:22 *214:10 0.000423793
35 *35:30 *214:10 0.00046399
36 *42:26 *214:10 2.11157e-05
37 *43:10 *214:38 7.3206e-05
38 *53:12 *214:10 0.000169269
39 *104:34 *214:87 0
40 *105:16 *214:22 6.70361e-05
41 *105:16 *214:26 9.91801e-05
42 *115:32 *214:38 1.61305e-05
43 *115:32 *214:53 1.75427e-05
44 *115:34 *214:38 0.0012587
45 *116:72 *214:53 1.30346e-05
46 *118:20 *2216:B 0.000395437
47 *132:10 *214:36 1.05658e-05
48 *133:16 *214:53 4.76467e-05
49 *141:28 *214:38 0.000632271
50 *141:28 *214:53 1.05441e-05
51 *156:71 *214:22 4.03172e-05
52 *164:10 *214:10 0.000111106
53 *166:24 *214:36 0.000311898
54 *169:32 *2221:B1 7.7588e-05
55 *169:32 *214:66 0.00183546
56 *171:10 *214:66 0.000692969
57 *171:14 *2221:B1 8.02832e-05
58 *171:14 *214:66 0.00111752
59 *171:170 *214:66 0.000687744
60 *171:170 *214:68 0.000576305
61 *171:170 *214:87 8.00365e-05
62 *171:198 *214:87 2.76611e-06
63 *171:198 *214:98 1.34354e-05
64 *177:170 *214:106 0
65 *178:6 *214:22 0.00055893
66 *180:20 *214:10 0.000263527
67 *181:78 *214:10 0.000132883
68 *189:30 *214:22 4.6643e-05
69 *192:122 *214:106 6.68793e-05
70 *192:126 *2179:D 0.000153155
71 *193:22 *214:53 0.000420405
72 *193:48 *214:66 0.000219015
73 *193:48 *214:68 0.000268775
74 *193:72 *214:68 0
75 *193:72 *214:87 0
76 *193:72 *214:98 0
77 *193:74 *214:100 0.00395244
78 *199:132 *214:10 0
79 *213:30 *214:36 2.33476e-05
80 *213:58 *214:38 0.00124809
81 *213:58 *214:53 9.23705e-06
82 *213:146 *214:100 0.00331101
*RES
1 *2350:Q *214:6 38 
2 *214:6 *214:10 43.6686 
3 *214:10 *214:22 43.3757 
4 *214:22 *214:26 3.97714 
5 *214:26 *214:36 33.6955 
6 *214:36 *214:38 35.8875 
7 *214:38 *330:DIODE 38 
8 *214:38 *214:53 18.9019 
9 *214:53 *2221:B1 39.0254 
10 *214:53 *214:66 33.7643 
11 *214:66 *214:68 16.2711 
12 *214:68 *2216:B 45.4571 
13 *214:68 *214:87 4.43286 
14 *214:87 *316:DIODE 38 
15 *214:87 *214:98 17.9621 
16 *214:98 *214:100 81.6143 
17 *214:100 *214:106 31.9057 
18 *214:106 *229:DIODE 23 
19 *214:106 *2179:D 28.1579 
20 *214:26 *2237:D 23 
21 *214:22 *371:DIODE 23 
*END

*D_NET *215 0.015612
*CONN
*I *2391:A I *D sky130_fd_sc_hd__buf_1
*I *2378:X O *D sky130_fd_sc_hd__buf_1
*CAP
1 *2391:A 0
2 *2378:X 0
3 *215:20 0.00179781
4 *215:16 0.00243766
5 *215:8 0.00158982
6 *215:4 0.000949961
7 *215:8 *612:DIODE 7.43845e-05
8 *395:DIODE *215:8 1.46462e-05
9 *475:DIODE *215:16 0.000179311
10 *475:DIODE *215:20 4.6595e-05
11 *2229:B *215:20 0.000115
12 *2249:B *215:8 1.66293e-05
13 *2260:A *215:20 2.32101e-05
14 *2285:B1 *215:20 6.46548e-05
15 *2307:A *215:20 2.20636e-05
16 *57:6 *215:20 0.000361611
17 *115:66 *215:8 0.00169156
18 *123:8 *215:8 0.000839925
19 *130:38 *215:16 0.000801278
20 *134:105 *215:16 0.000260899
21 *134:159 *215:16 9.80568e-05
22 *141:22 *215:8 0.00013223
23 *141:28 *215:8 8.48502e-06
24 *150:16 *215:16 0.000171765
25 *150:16 *215:20 0.000400499
26 *156:14 *215:16 7.64944e-05
27 *156:38 *215:16 2.02872e-05
28 *160:6 *215:8 0.000591496
29 *162:20 *215:16 0.000389777
30 *179:14 *215:20 0.000961116
31 *186:113 *215:20 0.000161605
32 *192:69 *215:8 6.40928e-05
33 *193:22 *215:8 0.000707167
34 *193:37 *215:8 0.000529177
35 *205:68 *215:16 1.27344e-05
*RES
1 *2378:X *215:4 23 
2 *215:4 *215:8 44.2071 
3 *215:8 *215:16 32.8971 
4 *215:16 *215:20 33.8679 
5 *215:20 *2391:A 23 
*END

*D_NET *216 0.0127725
*CONN
*I *2392:A I *D sky130_fd_sc_hd__buf_1
*I *2293:Y O *D sky130_fd_sc_hd__inv_2
*CAP
1 *2392:A 0
2 *2293:Y 0.000593436
3 *216:14 0.00123579
4 *216:10 0.00250703
5 *216:8 0.00186467
6 *373:DIODE *216:14 4.44329e-05
7 *466:DIODE *216:14 9.91386e-05
8 *2226:A *216:14 0.000212168
9 *2226:C *216:14 6.22712e-05
10 *2280:C *216:10 6.23461e-05
11 *42:20 *216:10 0.000174538
12 *115:70 *216:14 0.000441057
13 *119:97 *216:10 5.58473e-05
14 *119:133 *216:14 5.25848e-05
15 *126:8 *216:14 0.000607167
16 *150:29 *216:10 0
17 *156:140 *216:14 8.71888e-05
18 *161:10 *216:10 0.000787778
19 *177:124 *216:10 2.72055e-05
20 *180:156 *216:10 0.000359781
21 *183:150 *216:10 0.00257832
22 *184:161 *216:14 9.75779e-05
23 *185:30 *216:14 8.11489e-05
24 *201:71 *216:8 0.000271168
25 *203:56 *216:14 6.343e-05
26 *203:58 *216:14 0.000150727
27 *203:66 *216:14 0.000156193
28 *206:56 *216:10 9.94675e-05
*RES
1 *2293:Y *216:8 46.2443 
2 *216:8 *216:10 35.7114 
3 *216:10 *216:14 42.3014 
4 *216:14 *2392:A 23 
*END

*D_NET *217 0.0210568
*CONN
*I *2393:A I *D sky130_fd_sc_hd__buf_1
*I *616:DIODE I *D sky130_fd_sc_hd__diode_2
*I *2296:Y O *D sky130_fd_sc_hd__o21ai_2
*CAP
1 *2393:A 2.914e-05
2 *616:DIODE 0
3 *2296:Y 9.61842e-05
4 *217:32 0.00279977
5 *217:26 0.00397746
6 *217:20 0.00248235
7 *217:14 0.00315934
8 *217:8 0.00198001
9 *217:20 *218:38 2.49002e-05
10 *2357:RESET_B *217:26 0.000128818
11 *58:26 *217:32 0.000137651
12 *60:12 *217:20 0.000954321
13 *117:14 *217:20 2.05503e-05
14 *142:14 *217:8 0.000198712
15 *156:57 *217:32 0.000135037
16 *167:26 *217:20 0.000881149
17 *167:34 *217:14 0.00120458
18 *167:34 *217:20 0.00167174
19 *172:38 *217:32 0.000307917
20 *174:165 *217:26 0.000198878
21 *190:6 *217:26 9.29601e-05
22 *190:34 *217:26 0.000234872
23 *190:34 *217:32 1.24376e-05
24 *190:138 *217:32 4.2573e-05
25 *190:153 *217:32 8.43466e-05
26 *210:90 *217:20 0.000201133
*RES
1 *2296:Y *217:8 40.61 
2 *217:8 *217:14 45.1807 
3 *217:14 *217:20 47.3764 
4 *217:20 *217:26 30.8879 
5 *217:26 *217:32 42.2364 
6 *217:32 *616:DIODE 23 
7 *217:32 *2393:A 23.6214 
*END

*D_NET *218 0.033174
*CONN
*I *612:DIODE I *D sky130_fd_sc_hd__diode_2
*I *2378:A I *D sky130_fd_sc_hd__buf_1
*I *2394:A I *D sky130_fd_sc_hd__buf_1
*I *617:DIODE I *D sky130_fd_sc_hd__diode_2
*I *2295:X O *D sky130_fd_sc_hd__a211o_1
*CAP
1 *612:DIODE 8.47763e-05
2 *2378:A 0
3 *2394:A 3.2698e-05
4 *617:DIODE 0
5 *2295:X 0.000530386
6 *218:76 0.00106732
7 *218:58 0.00137253
8 *218:52 0.00224246
9 *218:38 0.00279312
10 *218:34 0.00294346
11 *218:30 0.00266607
12 *218:14 0.00314134
13 *218:10 0.00107608
14 *438:DIODE *218:52 1.00084e-05
15 *2220:A *218:14 5.50106e-05
16 *2267:A *218:58 4.65192e-05
17 *2295:A1 *218:10 5.14746e-06
18 *2295:B1 *218:10 0.000151306
19 *2329:A *218:52 2.26406e-05
20 *2341:RESET_B *218:52 0.000155709
21 *30:16 *218:30 0.000205754
22 *70:10 *218:34 0.000150008
23 *70:10 *218:76 0.00105144
24 *71:18 *218:30 0.000221212
25 *75:32 *218:52 0
26 *77:6 *218:58 0.00108689
27 *82:18 *218:34 0.000145582
28 *82:18 *218:76 0.00229438
29 *88:18 *218:38 0.000179473
30 *94:43 *218:14 0.0022356
31 *101:24 *218:30 7.66298e-06
32 *101:24 *218:76 0.000118027
33 *106:34 *218:76 0.000889908
34 *121:20 *218:14 0.00220643
35 *122:10 *218:10 0
36 *122:14 *218:10 9.03964e-06
37 *123:8 *612:DIODE 2.56967e-05
38 *123:8 *218:76 2.81066e-05
39 *132:18 *218:30 8.86126e-06
40 *136:46 *218:30 0
41 *141:28 *612:DIODE 0.000210516
42 *141:28 *218:76 9.41704e-05
43 *151:71 *218:52 4.73396e-05
44 *151:90 *218:38 0.000800366
45 *153:8 *218:38 0.000300999
46 *153:22 *218:30 8.86126e-06
47 *167:34 *218:38 0.00111857
48 *167:48 *218:10 0
49 *172:21 *218:52 5.82989e-06
50 *181:26 *218:76 0.000155531
51 *181:56 *218:10 8.29264e-05
52 *196:44 *218:30 0
53 *199:116 *218:58 0.000183547
54 *199:122 *218:58 0.000444828
55 *202:62 *218:52 6.8999e-05
56 *205:58 *218:52 7.15258e-05
57 *210:90 *218:38 0.000182123
58 *210:125 *218:38 3.78847e-05
59 *215:8 *612:DIODE 7.43845e-05
60 *217:20 *218:38 2.49002e-05
*RES
1 *2295:X *218:10 45.6436 
2 *218:10 *218:14 40.3957 
3 *218:14 *218:30 46.7265 
4 *218:30 *218:34 10.0818 
5 *218:34 *218:38 48.495 
6 *218:38 *218:52 49.4719 
7 *218:52 *218:58 27.4671 
8 *218:58 *617:DIODE 23 
9 *218:58 *2394:A 23.6214 
10 *218:34 *218:76 47.5836 
11 *218:76 *2378:A 23 
12 *218:76 *612:DIODE 25.5271 
*END

*D_NET *219 0.0185107
*CONN
*I *2395:A I *D sky130_fd_sc_hd__buf_1
*I *618:DIODE I *D sky130_fd_sc_hd__diode_2
*I *2298:X O *D sky130_fd_sc_hd__buf_1
*CAP
1 *2395:A 7.82055e-05
2 *618:DIODE 0
3 *2298:X 0.000120507
4 *219:26 0.00208868
5 *219:24 0.00201048
6 *219:22 0.00173874
7 *219:16 0.00299545
8 *219:8 0.00137721
9 *219:22 *2292:B1 0.000136636
10 *489:DIODE *219:22 3.34247e-05
11 *490:DIODE *219:22 9.41704e-05
12 *2292:A2 *219:16 0
13 *2292:A2 *219:22 0.00014196
14 *2301:A *219:26 3.71369e-05
15 *2367:D *219:16 0.000645408
16 *2367:RESET_B *219:16 0.000226306
17 *2373:CLK *219:26 9.41704e-05
18 *2373:D *219:26 7.25499e-05
19 *16:16 *219:26 0.000436805
20 *35:14 *219:16 0.000528568
21 *35:22 *219:26 0.000123143
22 *43:10 *219:16 0.000132638
23 *51:14 *219:22 0.000160191
24 *60:16 *219:22 0.000194201
25 *74:10 *219:16 0
26 *115:34 *219:16 0.000220684
27 *143:14 *219:26 0.00111464
28 *166:10 *219:22 5.50106e-05
29 *166:30 *219:8 0.000394186
30 *169:125 *219:26 0.000160498
31 *170:8 *219:26 0.000182832
32 *171:108 *219:26 0.00144912
33 *178:16 *219:26 0.000570056
34 *179:8 *219:26 7.59161e-05
35 *182:36 *219:16 4.00259e-06
36 *182:36 *219:22 8.36128e-05
37 *182:44 *219:22 2.02872e-05
38 *188:38 *219:8 0.000394186
39 *198:12 *219:26 0.000319124
*RES
1 *2298:X *219:8 42.4329 
2 *219:8 *219:16 42.4257 
3 *219:16 *219:22 38.3657 
4 *219:22 *219:24 15 
5 *219:24 *219:26 49.6936 
6 *219:26 *618:DIODE 23 
7 *219:26 *2395:A 24.595 
*END

*D_NET *220 0.0195574
*CONN
*I *485:DIODE I *D sky130_fd_sc_hd__diode_2
*I *2292:B1 I *D sky130_fd_sc_hd__o21ai_4
*I *491:DIODE I *D sky130_fd_sc_hd__diode_2
*I *473:DIODE I *D sky130_fd_sc_hd__diode_2
*I *2284:A I *D sky130_fd_sc_hd__inv_2
*I *2289:A I *D sky130_fd_sc_hd__and3_1
*I *2396:A I *D sky130_fd_sc_hd__buf_1
*I *619:DIODE I *D sky130_fd_sc_hd__diode_2
*I *2283:X O *D sky130_fd_sc_hd__buf_2
*CAP
1 *485:DIODE 0
2 *2292:B1 0.00015257
3 *491:DIODE 5.43738e-05
4 *473:DIODE 0
5 *2284:A 4.35679e-05
6 *2289:A 0
7 *2396:A 0
8 *619:DIODE 3.85483e-05
9 *2283:X 0
10 *220:73 0.000307892
11 *220:59 0.000636203
12 *220:53 0.000985937
13 *220:42 0.000368395
14 *220:38 0.00110558
15 *220:32 0.00281361
16 *220:14 0.000544641
17 *220:8 0.00441205
18 *220:6 0.00212189
19 seg[3] *220:8 2.42807e-05
20 *489:DIODE *491:DIODE 2.64616e-05
21 *489:DIODE *2292:B1 9.41704e-05
22 *552:DIODE *220:32 1.03955e-05
23 *552:DIODE *220:38 5.12254e-05
24 *2188:B *220:59 2.72088e-05
25 *2197:C *220:59 0.000133106
26 *2197:D *220:59 3.51895e-05
27 *2343:CLK *220:32 0.000173179
28 *2343:RESET_B *220:32 0.000196901
29 *2343:RESET_B *220:38 0.000107978
30 *85:8 *220:38 0.00135693
31 *85:8 *220:42 5.92492e-05
32 *85:8 *220:53 0.000439093
33 *97:24 *220:59 4.39444e-06
34 *108:26 *220:8 0
35 *156:93 *2284:A 0.000102944
36 *156:93 *220:59 0.000125059
37 *162:8 *220:59 0
38 *164:22 *220:42 0.000144494
39 *164:22 *220:53 5.36752e-05
40 *165:6 *220:53 0
41 *165:10 *220:53 0.000646321
42 *166:10 *2292:B1 5.67058e-05
43 *182:36 *2292:B1 0.000229526
44 *187:8 *220:8 0.000424109
45 *197:20 *2292:B1 0
46 *197:20 *220:59 0
47 *197:20 *220:73 0
48 *198:20 *2292:B1 7.273e-05
49 *198:20 *220:59 0.000337968
50 *198:20 *220:73 0.000155068
51 *203:26 *2284:A 0.000188526
52 *203:26 *220:59 0.000234534
53 *205:8 *220:38 0.000137651
54 *205:28 *220:59 0.000159285
55 *208:66 *220:59 2.71586e-05
56 *219:22 *2292:B1 0.000136636
*RES
1 *2283:X *220:6 38 
2 *220:6 *220:8 40.9936 
3 *220:8 *220:14 24.57 
4 *220:14 *619:DIODE 23.6214 
5 *220:14 *2396:A 23 
6 *220:8 *220:32 44.7043 
7 *220:32 *220:38 23.1793 
8 *220:38 *220:42 2.54786 
9 *220:42 *2289:A 23 
10 *220:42 *220:53 24.6943 
11 *220:53 *220:59 28.9407 
12 *220:59 *2284:A 25.0507 
13 *220:59 *473:DIODE 23 
14 *220:53 *220:73 2.25786 
15 *220:73 *491:DIODE 38.6214 
16 *220:73 *2292:B1 42.6814 
17 *220:38 *485:DIODE 23 
*END

*D_NET *221 0.0161866
*CONN
*I *2397:A I *D sky130_fd_sc_hd__buf_1
*I *620:DIODE I *D sky130_fd_sc_hd__diode_2
*I *2299:Y O *D sky130_fd_sc_hd__o31ai_2
*CAP
1 *2397:A 0.000118149
2 *620:DIODE 0.000122032
3 *2299:Y 0.00036057
4 *221:20 0.000451368
5 *221:16 0.00293524
6 *221:14 0.00272405
7 *221:12 0.0035629
8 *221:10 0.0035629
9 *221:8 0.00036057
10 seg[2] *221:16 2.11066e-05
11 seg[4] *221:16 2.11066e-05
12 *2376:CLK *221:12 2.81066e-05
13 *2376:RESET_B *221:12 2.11315e-05
14 *15:10 *620:DIODE 0.000146822
15 *15:10 *2397:A 5.68958e-05
16 *19:22 *221:12 8.0155e-05
17 *130:38 *221:8 0.000270127
18 *130:46 *221:12 9.66585e-05
19 *134:105 *221:8 0.000652568
20 *178:52 *221:12 2.81066e-05
21 *180:58 *221:8 4.56784e-05
22 *182:10 *221:12 0.00035806
23 *204:76 *221:8 0.000162254
*RES
1 *2299:Y *221:8 48.005 
2 *221:8 *221:10 15 
3 *221:10 *221:12 43.0236 
4 *221:12 *221:14 15 
5 *221:14 *221:16 56.4879 
6 *221:16 *221:20 18.0036 
7 *221:20 *620:DIODE 25.0507 
8 *221:20 *2397:A 25.7757 
*END
