*SPEF "ieee 1481-1999"
*DESIGN "lab3"
*DATE "20:36:34 Sunday May 25, 2025"
*VENDOR "The OpenROAD Project"
*PROGRAM "OpenROAD"
*VERSION "b16bda7e82721d10566ff7e2b68f1ff0be9f9e38"
*DESIGN_FLOW "NAME_SCOPE LOCAL" "PIN_CAP NONE"
*DIVIDER /
*DELIMITER :
*BUS_DELIMITER []
*T_UNIT 1 NS
*C_UNIT 1 PF
*R_UNIT 1 OHM
*L_UNIT 1 HENRY

*NAME_MAP
*3 net8
*4 net9
*5 net10
*6 net11
*7 clk
*8 rst_button
*9 seg[0]
*10 seg[1]
*11 seg[2]
*12 seg[3]
*13 seg[4]
*14 seg[5]
*15 seg[6]
*16 _000_
*17 _001_
*18 _002_
*19 _003_
*20 _004_
*21 _005_
*22 _006_
*23 _007_
*24 _008_
*25 _009_
*26 _010_
*27 _011_
*28 _012_
*29 _013_
*30 _014_
*31 _015_
*32 _016_
*33 _017_
*34 _018_
*35 _019_
*36 _020_
*37 _021_
*38 _022_
*39 _023_
*40 _024_
*41 _025_
*42 _026_
*43 _027_
*44 _028_
*45 _029_
*46 _030_
*47 _031_
*48 _032_
*49 _033_
*50 _034_
*51 _035_
*52 _036_
*53 _037_
*54 _038_
*55 _039_
*56 _040_
*57 _041_
*58 _042_
*59 _043_
*60 _044_
*61 _045_
*62 _046_
*63 _047_
*64 _048_
*65 _049_
*66 _050_
*67 _051_
*68 _052_
*69 _053_
*70 _054_
*71 _055_
*72 _056_
*73 _057_
*74 _058_
*75 _059_
*76 _060_
*77 _061_
*78 _062_
*79 _063_
*80 _064_
*81 _065_
*82 _066_
*83 _067_
*84 _068_
*85 _069_
*86 _070_
*87 _071_
*88 _072_
*89 _073_
*90 _074_
*91 _075_
*92 _076_
*93 _077_
*94 _078_
*95 _079_
*96 _080_
*97 _081_
*98 _082_
*99 _083_
*100 _084_
*101 _085_
*102 _086_
*103 _087_
*104 _088_
*105 _089_
*106 _090_
*107 _091_
*108 _092_
*109 _093_
*110 _094_
*111 _095_
*112 _096_
*113 _097_
*114 _098_
*115 _099_
*116 _100_
*117 _101_
*118 _102_
*119 _103_
*120 _104_
*121 _105_
*122 _106_
*123 _107_
*124 _108_
*125 _109_
*126 _110_
*127 _111_
*128 _112_
*129 _113_
*130 _114_
*131 _115_
*132 _116_
*133 _117_
*134 _118_
*135 _119_
*136 _120_
*137 _121_
*138 _122_
*139 _123_
*140 _124_
*141 _125_
*142 _126_
*143 _127_
*144 _128_
*145 _129_
*146 _130_
*147 _131_
*148 _132_
*149 _133_
*150 _134_
*151 _135_
*152 _136_
*153 _137_
*154 _138_
*155 _139_
*156 _140_
*157 _141_
*158 _142_
*159 _143_
*160 _144_
*161 _145_
*162 _146_
*163 _147_
*164 _148_
*165 _149_
*166 _150_
*167 _151_
*168 _152_
*169 _153_
*170 _154_
*171 _155_
*172 _156_
*173 clknet_0_clk
*174 clknet_2_0__leaf_clk
*175 clknet_2_1__leaf_clk
*176 clknet_2_2__leaf_clk
*177 clknet_2_3__leaf_clk
*178 counter\.clk
*179 counter\.count\[0\]
*180 counter\.count\[1\]
*181 counter\.count\[2\]
*182 counter\.count\[3\]
*183 div\.count\[0\]
*184 div\.count\[10\]
*185 div\.count\[11\]
*186 div\.count\[12\]
*187 div\.count\[13\]
*188 div\.count\[14\]
*189 div\.count\[15\]
*190 div\.count\[16\]
*191 div\.count\[17\]
*192 div\.count\[18\]
*193 div\.count\[19\]
*194 div\.count\[1\]
*195 div\.count\[20\]
*196 div\.count\[21\]
*197 div\.count\[22\]
*198 div\.count\[23\]
*199 div\.count\[24\]
*200 div\.count\[25\]
*201 div\.count\[26\]
*202 div\.count\[27\]
*203 div\.count\[28\]
*204 div\.count\[29\]
*205 div\.count\[2\]
*206 div\.count\[30\]
*207 div\.count\[31\]
*208 div\.count\[3\]
*209 div\.count\[4\]
*210 div\.count\[5\]
*211 div\.count\[6\]
*212 div\.count\[7\]
*213 div\.count\[8\]
*214 div\.count\[9\]
*215 net1
*216 net2
*217 net3
*218 net4
*219 net5
*220 net6
*221 net7
*222 ANTENNA__157__A
*223 ANTENNA__157__B
*224 ANTENNA__157__C
*225 ANTENNA__157__D_N
*226 ANTENNA__158__A
*227 ANTENNA__158__B
*228 ANTENNA__158__C
*229 ANTENNA__158__D
*230 ANTENNA__159__A
*231 ANTENNA__159__B
*232 ANTENNA__159__C
*233 ANTENNA__159__D
*234 ANTENNA__160__A
*235 ANTENNA__160__B
*236 ANTENNA__160__C
*237 ANTENNA__160__D_N
*238 ANTENNA__161__A
*239 ANTENNA__162__B
*240 ANTENNA__162__C
*241 ANTENNA__162__D
*242 ANTENNA__163__A
*243 ANTENNA__163__B
*244 ANTENNA__163__C
*245 ANTENNA__164__A
*246 ANTENNA__164__B
*247 ANTENNA__164__C
*248 ANTENNA__165__A
*249 ANTENNA__165__B
*250 ANTENNA__165__C
*251 ANTENNA__165__D_N
*252 ANTENNA__166__A
*253 ANTENNA__166__B
*254 ANTENNA__166__C
*255 ANTENNA__166__D_N
*256 ANTENNA__167__A
*257 ANTENNA__167__B
*258 ANTENNA__168__A
*259 ANTENNA__168__B
*260 ANTENNA__169__A_N
*261 ANTENNA__169__B
*262 ANTENNA__170__A
*263 ANTENNA__171__A
*264 ANTENNA__171__B
*265 ANTENNA__172__A
*266 ANTENNA__172__B
*267 ANTENNA__173__A
*268 ANTENNA__173__B
*269 ANTENNA__174__A
*270 ANTENNA__175__A
*271 ANTENNA__175__B
*272 ANTENNA__176__A
*273 ANTENNA__176__B
*274 ANTENNA__176__C
*275 ANTENNA__176__D
*276 ANTENNA__178__A1
*277 ANTENNA__178__A2
*278 ANTENNA__178__A3
*279 ANTENNA__178__B1
*280 ANTENNA__179__A_N
*281 ANTENNA__180__A
*282 ANTENNA__181__A
*283 ANTENNA__181__B
*284 ANTENNA__182__A
*285 ANTENNA__182__B
*286 ANTENNA__182__C
*287 ANTENNA__183__A1
*288 ANTENNA__183__A2
*289 ANTENNA__183__B1
*290 ANTENNA__184__A
*291 ANTENNA__184__B
*292 ANTENNA__185__A
*293 ANTENNA__185__B
*294 ANTENNA__186__A
*295 ANTENNA__186__B
*296 ANTENNA__187__A
*297 ANTENNA__187__B
*298 ANTENNA__187__C
*299 ANTENNA__188__A
*300 ANTENNA__189__A
*301 ANTENNA__190__A
*302 ANTENNA__190__B
*303 ANTENNA__190__C
*304 ANTENNA__190__D
*305 ANTENNA__191__A
*306 ANTENNA__191__B
*307 ANTENNA__192__A1
*308 ANTENNA__192__A2
*309 ANTENNA__192__B1
*310 ANTENNA__193__A1
*311 ANTENNA__193__A2
*312 ANTENNA__193__B1
*313 ANTENNA__194__A1
*314 ANTENNA__194__A2
*315 ANTENNA__195__A
*316 ANTENNA__195__B
*317 ANTENNA__195__C
*318 ANTENNA__195__D
*319 ANTENNA__197__A
*320 ANTENNA__197__C
*321 ANTENNA__197__D_N
*322 ANTENNA__198__A
*323 ANTENNA__198__B
*324 ANTENNA__198__C
*325 ANTENNA__198__D
*326 ANTENNA__199__A
*327 ANTENNA__200__A1
*328 ANTENNA__200__A2
*329 ANTENNA__200__A3
*330 ANTENNA__200__B1
*331 ANTENNA__201__A
*332 ANTENNA__201__B
*333 ANTENNA__202__A
*334 ANTENNA__203__A
*335 ANTENNA__203__B
*336 ANTENNA__204__A1
*337 ANTENNA__204__A2
*338 ANTENNA__204__B1
*339 ANTENNA__205__A
*340 ANTENNA__205__B
*341 ANTENNA__205__C
*342 ANTENNA__206__A
*343 ANTENNA__206__B
*344 ANTENNA__206__C
*345 ANTENNA__207__A
*346 ANTENNA__208__A
*347 ANTENNA__208__B
*348 ANTENNA__209__A
*349 ANTENNA__209__B
*350 ANTENNA__209__C
*351 ANTENNA__209__D
*352 ANTENNA__210__A
*353 ANTENNA__210__B
*354 ANTENNA__210__C
*355 ANTENNA__210__D
*356 ANTENNA__211__A
*357 ANTENNA__211__B
*358 ANTENNA__212__A1
*359 ANTENNA__212__B1_N
*360 ANTENNA__213__A
*361 ANTENNA__213__B
*362 ANTENNA__214__A1
*363 ANTENNA__214__A2
*364 ANTENNA__214__B1
*365 ANTENNA__214__C1
*366 ANTENNA__215__A
*367 ANTENNA__215__B
*368 ANTENNA__216__A
*369 ANTENNA__216__B
*370 ANTENNA__216__C
*371 ANTENNA__216__D
*372 ANTENNA__217__A
*373 ANTENNA__217__B
*374 ANTENNA__217__C
*375 ANTENNA__219__A
*376 ANTENNA__219__B
*377 ANTENNA__220__A1
*378 ANTENNA__220__A2
*379 ANTENNA__220__B1
*380 ANTENNA__221__A
*381 ANTENNA__221__B
*382 ANTENNA__221__C
*383 ANTENNA__222__B
*384 ANTENNA__223__A
*385 ANTENNA__223__B
*386 ANTENNA__224__A
*387 ANTENNA__224__B
*388 ANTENNA__224__C
*389 ANTENNA__224__D
*390 ANTENNA__225__A
*391 ANTENNA__225__C
*392 ANTENNA__227__A
*393 ANTENNA__227__B_N
*394 ANTENNA__228__A
*395 ANTENNA__228__B
*396 ANTENNA__228__C
*397 ANTENNA__228__D
*398 ANTENNA__229__A
*399 ANTENNA__229__B
*400 ANTENNA__230__A
*401 ANTENNA__230__B
*402 ANTENNA__231__A
*403 ANTENNA__232__A
*404 ANTENNA__232__B
*405 ANTENNA__232__C
*406 ANTENNA__233__A1
*407 ANTENNA__233__A2
*408 ANTENNA__233__B1
*409 ANTENNA__234__A
*410 ANTENNA__234__B
*411 ANTENNA__235__A
*412 ANTENNA__235__B
*413 ANTENNA__236__A1
*414 ANTENNA__236__A2
*415 ANTENNA__236__B1
*416 ANTENNA__237__A
*417 ANTENNA__237__B
*418 ANTENNA__237__C
*419 ANTENNA__238__A
*420 ANTENNA__238__C
*421 ANTENNA__239__A
*422 ANTENNA__240__A
*423 ANTENNA__240__B
*424 ANTENNA__241__A
*425 ANTENNA__241__B
*426 ANTENNA__241__C
*427 ANTENNA__242__A
*428 ANTENNA__242__B
*429 ANTENNA__242__C
*430 ANTENNA__243__A
*431 ANTENNA__244__A
*432 ANTENNA__244__B
*433 ANTENNA__245__A1
*434 ANTENNA__245__A2
*435 ANTENNA__245__B1
*436 ANTENNA__246__A
*437 ANTENNA__246__B
*438 ANTENNA__246__C
*439 ANTENNA__247__A
*440 ANTENNA__247__B
*441 ANTENNA__248__A
*442 ANTENNA__248__B
*443 ANTENNA__249__A
*444 ANTENNA__249__B
*445 ANTENNA__249__C
*446 ANTENNA__249__D
*447 ANTENNA__250__A
*448 ANTENNA__250__B
*449 ANTENNA__250__C
*450 ANTENNA__250__D
*451 ANTENNA__251__A
*452 ANTENNA__252__A1
*453 ANTENNA__252__B1_N
*454 ANTENNA__253__A
*455 ANTENNA__253__B
*456 ANTENNA__254__A
*457 ANTENNA__254__B
*458 ANTENNA__255__B
*459 ANTENNA__256__A
*460 ANTENNA__256__B
*461 ANTENNA__256__C
*462 ANTENNA__257__A1
*463 ANTENNA__257__B1
*464 ANTENNA__258__A
*465 ANTENNA__258__B
*466 ANTENNA__259__A
*467 ANTENNA__259__B
*468 ANTENNA__259__C
*469 ANTENNA__259__D
*470 ANTENNA__261__A
*471 ANTENNA__261__B
*472 ANTENNA__261__C
*473 ANTENNA__263__A
*474 ANTENNA__264__A1
*475 ANTENNA__264__A2
*476 ANTENNA__264__B1
*477 ANTENNA__265__A
*478 ANTENNA__265__B
*479 ANTENNA__266__A
*480 ANTENNA__266__B
*481 ANTENNA__266__C
*482 ANTENNA__267__A1
*483 ANTENNA__267__A2
*484 ANTENNA__267__B1
*485 ANTENNA__268__A
*486 ANTENNA__268__B
*487 ANTENNA__270__A
*488 ANTENNA__270__B
*489 ANTENNA__271__A1
*490 ANTENNA__271__A2
*491 ANTENNA__271__B1
*492 ANTENNA__272__A
*493 ANTENNA__273__A
*494 ANTENNA__274__A1
*495 ANTENNA__274__A2
*496 ANTENNA__274__B1
*497 ANTENNA__274__C1
*498 ANTENNA__275__A1
*499 ANTENNA__275__A2
*500 ANTENNA__275__B1
*501 ANTENNA__276__A
*502 ANTENNA__276__B
*503 ANTENNA__276__C
*504 ANTENNA__278__A1
*505 ANTENNA__278__A2
*506 ANTENNA__278__A3
*507 ANTENNA__278__B1
*508 ANTENNA__280__A
*509 ANTENNA__281__A
*510 ANTENNA__282__A
*511 ANTENNA__283__A
*512 ANTENNA__284__A
*513 ANTENNA__285__A
*514 ANTENNA__286__A
*515 ANTENNA__287__A
*516 ANTENNA__288__A
*517 ANTENNA__289__A
*518 ANTENNA__290__A
*519 ANTENNA__291__A
*520 ANTENNA__292__A
*521 ANTENNA__293__A
*522 ANTENNA__294__A
*523 ANTENNA__295__A
*524 ANTENNA__296__A
*525 ANTENNA__297__A
*526 ANTENNA__298__A
*527 ANTENNA__299__A
*528 ANTENNA__300__A
*529 ANTENNA__301__A
*530 ANTENNA__302__A
*531 ANTENNA__303__A
*532 ANTENNA__304__A
*533 ANTENNA__305__A
*534 ANTENNA__306__A
*535 ANTENNA__307__A
*536 ANTENNA__308__A
*537 ANTENNA__309__A
*538 ANTENNA__310__A
*539 ANTENNA__311__A
*540 ANTENNA__312__A
*541 ANTENNA__313__A
*542 ANTENNA__314__A
*543 ANTENNA__315__A
*544 ANTENNA__316__A
*545 ANTENNA__317__A
*546 ANTENNA__318__A
*547 ANTENNA__319__A
*548 ANTENNA__320__CLK
*549 ANTENNA__321__CLK
*550 ANTENNA__321__D
*551 ANTENNA__322__CLK
*552 ANTENNA__322__D
*553 ANTENNA__323__CLK
*554 ANTENNA__323__RESET_B
*555 ANTENNA__324__CLK
*556 ANTENNA__324__RESET_B
*557 ANTENNA__325__CLK
*558 ANTENNA__326__CLK
*559 ANTENNA__326__RESET_B
*560 ANTENNA__327__CLK
*561 ANTENNA__328__CLK
*562 ANTENNA__328__RESET_B
*563 ANTENNA__329__CLK
*564 ANTENNA__330__CLK
*565 ANTENNA__330__D
*566 ANTENNA__331__CLK
*567 ANTENNA__332__CLK
*568 ANTENNA__333__CLK
*569 ANTENNA__333__RESET_B
*570 ANTENNA__334__CLK
*571 ANTENNA__334__RESET_B
*572 ANTENNA__335__CLK
*573 ANTENNA__335__D
*574 ANTENNA__335__RESET_B
*575 ANTENNA__336__CLK
*576 ANTENNA__337__CLK
*577 ANTENNA__337__D
*578 ANTENNA__338__CLK
*579 ANTENNA__339__CLK
*580 ANTENNA__339__D
*581 ANTENNA__339__RESET_B
*582 ANTENNA__340__CLK
*583 ANTENNA__341__CLK
*584 ANTENNA__341__D
*585 ANTENNA__341__RESET_B
*586 ANTENNA__342__CLK
*587 ANTENNA__342__D
*588 ANTENNA__342__RESET_B
*589 ANTENNA__343__CLK
*590 ANTENNA__343__D
*591 ANTENNA__343__RESET_B
*592 ANTENNA__344__CLK
*593 ANTENNA__344__D
*594 ANTENNA__345__CLK
*595 ANTENNA__345__D
*596 ANTENNA__346__CLK
*597 ANTENNA__347__CLK
*598 ANTENNA__348__CLK
*599 ANTENNA__348__RESET_B
*600 ANTENNA__349__CLK
*601 ANTENNA__349__D
*602 ANTENNA__350__CLK
*603 ANTENNA__350__RESET_B
*604 ANTENNA__351__CLK
*605 ANTENNA__352__CLK
*606 ANTENNA__353__CLK
*607 ANTENNA__353__D
*608 ANTENNA__354__CLK
*609 ANTENNA__354__D
*610 ANTENNA__355__CLK
*611 ANTENNA__356__CLK
*612 ANTENNA__361__A
*613 ANTENNA_clkload0_A
*614 ANTENNA_clkload1_A
*615 ANTENNA_clkload2_A
*616 ANTENNA_output3_A
*617 ANTENNA_output4_A
*618 ANTENNA_output5_A
*619 ANTENNA_output6_A
*620 ANTENNA_output7_A
*621 FILLER_0_0_101
*622 FILLER_0_0_108
*623 FILLER_0_0_113
*624 FILLER_0_0_125
*625 FILLER_0_0_137
*626 FILLER_0_0_141
*627 FILLER_0_0_147
*628 FILLER_0_0_15
*629 FILLER_0_0_151
*630 FILLER_0_0_163
*631 FILLER_0_0_167
*632 FILLER_0_0_169
*633 FILLER_0_0_181
*634 FILLER_0_0_193
*635 FILLER_0_0_197
*636 FILLER_0_0_204
*637 FILLER_0_0_208
*638 FILLER_0_0_220
*639 FILLER_0_0_225
*640 FILLER_0_0_23
*641 FILLER_0_0_27
*642 FILLER_0_0_29
*643 FILLER_0_0_3
*644 FILLER_0_0_80
*645 FILLER_0_0_85
*646 FILLER_0_0_89
*647 FILLER_0_10_109
*648 FILLER_0_10_123
*649 FILLER_0_10_133
*650 FILLER_0_10_137
*651 FILLER_0_10_141
*652 FILLER_0_10_145
*653 FILLER_0_10_149
*654 FILLER_0_10_15
*655 FILLER_0_10_174
*656 FILLER_0_10_178
*657 FILLER_0_10_185
*658 FILLER_0_10_189
*659 FILLER_0_10_195
*660 FILLER_0_10_197
*661 FILLER_0_10_203
*662 FILLER_0_10_207
*663 FILLER_0_10_219
*664 FILLER_0_10_225
*665 FILLER_0_10_231
*666 FILLER_0_10_27
*667 FILLER_0_10_29
*668 FILLER_0_10_3
*669 FILLER_0_10_45
*670 FILLER_0_10_49
*671 FILLER_0_10_53
*672 FILLER_0_10_65
*673 FILLER_0_10_77
*674 FILLER_0_10_80
*675 FILLER_0_10_85
*676 FILLER_0_10_97
*677 FILLER_0_11_110
*678 FILLER_0_11_12
*679 FILLER_0_11_136
*680 FILLER_0_11_140
*681 FILLER_0_11_148
*682 FILLER_0_11_151
*683 FILLER_0_11_157
*684 FILLER_0_11_165
*685 FILLER_0_11_169
*686 FILLER_0_11_181
*687 FILLER_0_11_193
*688 FILLER_0_11_205
*689 FILLER_0_11_217
*690 FILLER_0_11_223
*691 FILLER_0_11_225
*692 FILLER_0_11_24
*693 FILLER_0_11_3
*694 FILLER_0_11_39
*695 FILLER_0_11_43
*696 FILLER_0_11_55
*697 FILLER_0_11_57
*698 FILLER_0_11_65
*699 FILLER_0_11_76
*700 FILLER_0_11_82
*701 FILLER_0_11_86
*702 FILLER_0_11_9
*703 FILLER_0_11_98
*704 FILLER_0_12_10
*705 FILLER_0_12_108
*706 FILLER_0_12_120
*707 FILLER_0_12_132
*708 FILLER_0_12_141
*709 FILLER_0_12_147
*710 FILLER_0_12_151
*711 FILLER_0_12_155
*712 FILLER_0_12_16
*713 FILLER_0_12_165
*714 FILLER_0_12_179
*715 FILLER_0_12_191
*716 FILLER_0_12_195
*717 FILLER_0_12_197
*718 FILLER_0_12_20
*719 FILLER_0_12_209
*720 FILLER_0_12_213
*721 FILLER_0_12_218
*722 FILLER_0_12_222
*723 FILLER_0_12_230
*724 FILLER_0_12_29
*725 FILLER_0_12_41
*726 FILLER_0_12_52
*727 FILLER_0_12_60
*728 FILLER_0_12_88
*729 FILLER_0_12_92
*730 FILLER_0_12_96
*731 FILLER_0_13_105
*732 FILLER_0_13_108
*733 FILLER_0_13_113
*734 FILLER_0_13_125
*735 FILLER_0_13_130
*736 FILLER_0_13_138
*737 FILLER_0_13_15
*738 FILLER_0_13_165
*739 FILLER_0_13_177
*740 FILLER_0_13_181
*741 FILLER_0_13_185
*742 FILLER_0_13_189
*743 FILLER_0_13_201
*744 FILLER_0_13_213
*745 FILLER_0_13_221
*746 FILLER_0_13_225
*747 FILLER_0_13_27
*748 FILLER_0_13_3
*749 FILLER_0_13_39
*750 FILLER_0_13_51
*751 FILLER_0_13_55
*752 FILLER_0_13_57
*753 FILLER_0_13_69
*754 FILLER_0_13_81
*755 FILLER_0_13_93
*756 FILLER_0_14_101
*757 FILLER_0_14_126
*758 FILLER_0_14_15
*759 FILLER_0_14_174
*760 FILLER_0_14_178
*761 FILLER_0_14_186
*762 FILLER_0_14_194
*763 FILLER_0_14_197
*764 FILLER_0_14_209
*765 FILLER_0_14_221
*766 FILLER_0_14_27
*767 FILLER_0_14_29
*768 FILLER_0_14_3
*769 FILLER_0_14_37
*770 FILLER_0_14_49
*771 FILLER_0_14_61
*772 FILLER_0_14_73
*773 FILLER_0_14_81
*774 FILLER_0_14_85
*775 FILLER_0_14_97
*776 FILLER_0_15_111
*777 FILLER_0_15_113
*778 FILLER_0_15_125
*779 FILLER_0_15_137
*780 FILLER_0_15_141
*781 FILLER_0_15_145
*782 FILLER_0_15_149
*783 FILLER_0_15_15
*784 FILLER_0_15_155
*785 FILLER_0_15_158
*786 FILLER_0_15_162
*787 FILLER_0_15_166
*788 FILLER_0_15_169
*789 FILLER_0_15_177
*790 FILLER_0_15_182
*791 FILLER_0_15_209
*792 FILLER_0_15_213
*793 FILLER_0_15_221
*794 FILLER_0_15_225
*795 FILLER_0_15_27
*796 FILLER_0_15_3
*797 FILLER_0_15_36
*798 FILLER_0_15_43
*799 FILLER_0_15_47
*800 FILLER_0_15_55
*801 FILLER_0_15_57
*802 FILLER_0_15_69
*803 FILLER_0_15_81
*804 FILLER_0_15_93
*805 FILLER_0_15_99
*806 FILLER_0_16_109
*807 FILLER_0_16_12
*808 FILLER_0_16_121
*809 FILLER_0_16_133
*810 FILLER_0_16_139
*811 FILLER_0_16_141
*812 FILLER_0_16_153
*813 FILLER_0_16_165
*814 FILLER_0_16_177
*815 FILLER_0_16_189
*816 FILLER_0_16_195
*817 FILLER_0_16_197
*818 FILLER_0_16_201
*819 FILLER_0_16_205
*820 FILLER_0_16_208
*821 FILLER_0_16_24
*822 FILLER_0_16_29
*823 FILLER_0_16_3
*824 FILLER_0_16_35
*825 FILLER_0_16_41
*826 FILLER_0_16_54
*827 FILLER_0_16_58
*828 FILLER_0_16_64
*829 FILLER_0_16_68
*830 FILLER_0_16_71
*831 FILLER_0_16_8
*832 FILLER_0_16_83
*833 FILLER_0_16_85
*834 FILLER_0_16_97
*835 FILLER_0_17_103
*836 FILLER_0_17_111
*837 FILLER_0_17_113
*838 FILLER_0_17_125
*839 FILLER_0_17_133
*840 FILLER_0_17_137
*841 FILLER_0_17_149
*842 FILLER_0_17_15
*843 FILLER_0_17_161
*844 FILLER_0_17_167
*845 FILLER_0_17_169
*846 FILLER_0_17_181
*847 FILLER_0_17_193
*848 FILLER_0_17_199
*849 FILLER_0_17_225
*850 FILLER_0_17_27
*851 FILLER_0_17_3
*852 FILLER_0_17_51
*853 FILLER_0_17_69
*854 FILLER_0_17_95
*855 FILLER_0_17_99
*856 FILLER_0_18_128
*857 FILLER_0_18_132
*858 FILLER_0_18_141
*859 FILLER_0_18_145
*860 FILLER_0_18_15
*861 FILLER_0_18_157
*862 FILLER_0_18_169
*863 FILLER_0_18_181
*864 FILLER_0_18_19
*865 FILLER_0_18_193
*866 FILLER_0_18_197
*867 FILLER_0_18_209
*868 FILLER_0_18_221
*869 FILLER_0_18_227
*870 FILLER_0_18_25
*871 FILLER_0_18_29
*872 FILLER_0_18_3
*873 FILLER_0_18_36
*874 FILLER_0_18_48
*875 FILLER_0_18_53
*876 FILLER_0_18_59
*877 FILLER_0_18_62
*878 FILLER_0_18_74
*879 FILLER_0_18_82
*880 FILLER_0_18_85
*881 FILLER_0_18_97
*882 FILLER_0_19_105
*883 FILLER_0_19_111
*884 FILLER_0_19_113
*885 FILLER_0_19_125
*886 FILLER_0_19_137
*887 FILLER_0_19_140
*888 FILLER_0_19_15
*889 FILLER_0_19_150
*890 FILLER_0_19_154
*891 FILLER_0_19_169
*892 FILLER_0_19_179
*893 FILLER_0_19_183
*894 FILLER_0_19_195
*895 FILLER_0_19_207
*896 FILLER_0_19_219
*897 FILLER_0_19_223
*898 FILLER_0_19_225
*899 FILLER_0_19_23
*900 FILLER_0_19_26
*901 FILLER_0_19_3
*902 FILLER_0_19_36
*903 FILLER_0_19_48
*904 FILLER_0_19_57
*905 FILLER_0_19_69
*906 FILLER_0_19_81
*907 FILLER_0_19_93
*908 FILLER_0_1_109
*909 FILLER_0_1_11
*910 FILLER_0_1_113
*911 FILLER_0_1_125
*912 FILLER_0_1_137
*913 FILLER_0_1_169
*914 FILLER_0_1_173
*915 FILLER_0_1_185
*916 FILLER_0_1_199
*917 FILLER_0_1_21
*918 FILLER_0_1_228
*919 FILLER_0_1_232
*920 FILLER_0_1_25
*921 FILLER_0_1_29
*922 FILLER_0_1_3
*923 FILLER_0_1_33
*924 FILLER_0_1_45
*925 FILLER_0_1_49
*926 FILLER_0_1_52
*927 FILLER_0_1_57
*928 FILLER_0_1_62
*929 FILLER_0_1_66
*930 FILLER_0_1_78
*931 FILLER_0_1_90
*932 FILLER_0_1_97
*933 FILLER_0_20_103
*934 FILLER_0_20_11
*935 FILLER_0_20_115
*936 FILLER_0_20_129
*937 FILLER_0_20_137
*938 FILLER_0_20_141
*939 FILLER_0_20_15
*940 FILLER_0_20_153
*941 FILLER_0_20_157
*942 FILLER_0_20_183
*943 FILLER_0_20_195
*944 FILLER_0_20_197
*945 FILLER_0_20_209
*946 FILLER_0_20_221
*947 FILLER_0_20_24
*948 FILLER_0_20_3
*949 FILLER_0_20_34
*950 FILLER_0_20_40
*951 FILLER_0_20_44
*952 FILLER_0_20_56
*953 FILLER_0_20_68
*954 FILLER_0_20_7
*955 FILLER_0_20_80
*956 FILLER_0_20_91
*957 FILLER_0_21_101
*958 FILLER_0_21_106
*959 FILLER_0_21_110
*960 FILLER_0_21_113
*961 FILLER_0_21_121
*962 FILLER_0_21_127
*963 FILLER_0_21_132
*964 FILLER_0_21_136
*965 FILLER_0_21_144
*966 FILLER_0_21_15
*967 FILLER_0_21_155
*968 FILLER_0_21_159
*969 FILLER_0_21_163
*970 FILLER_0_21_167
*971 FILLER_0_21_169
*972 FILLER_0_21_181
*973 FILLER_0_21_193
*974 FILLER_0_21_205
*975 FILLER_0_21_211
*976 FILLER_0_21_219
*977 FILLER_0_21_228
*978 FILLER_0_21_27
*979 FILLER_0_21_3
*980 FILLER_0_21_39
*981 FILLER_0_21_51
*982 FILLER_0_21_55
*983 FILLER_0_21_57
*984 FILLER_0_21_69
*985 FILLER_0_21_81
*986 FILLER_0_21_93
*987 FILLER_0_22_105
*988 FILLER_0_22_138
*989 FILLER_0_22_141
*990 FILLER_0_22_149
*991 FILLER_0_22_15
*992 FILLER_0_22_152
*993 FILLER_0_22_164
*994 FILLER_0_22_176
*995 FILLER_0_22_188
*996 FILLER_0_22_197
*997 FILLER_0_22_205
*998 FILLER_0_22_209
*999 FILLER_0_22_232
*1000 FILLER_0_22_27
*1001 FILLER_0_22_29
*1002 FILLER_0_22_3
*1003 FILLER_0_22_33
*1004 FILLER_0_22_37
*1005 FILLER_0_22_41
*1006 FILLER_0_22_53
*1007 FILLER_0_22_65
*1008 FILLER_0_22_77
*1009 FILLER_0_22_83
*1010 FILLER_0_22_85
*1011 FILLER_0_22_97
*1012 FILLER_0_23_105
*1013 FILLER_0_23_111
*1014 FILLER_0_23_133
*1015 FILLER_0_23_137
*1016 FILLER_0_23_15
*1017 FILLER_0_23_150
*1018 FILLER_0_23_154
*1019 FILLER_0_23_158
*1020 FILLER_0_23_166
*1021 FILLER_0_23_169
*1022 FILLER_0_23_173
*1023 FILLER_0_23_177
*1024 FILLER_0_23_181
*1025 FILLER_0_23_185
*1026 FILLER_0_23_189
*1027 FILLER_0_23_201
*1028 FILLER_0_23_209
*1029 FILLER_0_23_213
*1030 FILLER_0_23_217
*1031 FILLER_0_23_27
*1032 FILLER_0_23_3
*1033 FILLER_0_23_33
*1034 FILLER_0_23_40
*1035 FILLER_0_23_52
*1036 FILLER_0_23_57
*1037 FILLER_0_23_69
*1038 FILLER_0_23_81
*1039 FILLER_0_23_93
*1040 FILLER_0_24_10
*1041 FILLER_0_24_104
*1042 FILLER_0_24_112
*1043 FILLER_0_24_116
*1044 FILLER_0_24_120
*1045 FILLER_0_24_132
*1046 FILLER_0_24_136
*1047 FILLER_0_24_14
*1048 FILLER_0_24_151
*1049 FILLER_0_24_155
*1050 FILLER_0_24_159
*1051 FILLER_0_24_167
*1052 FILLER_0_24_178
*1053 FILLER_0_24_188
*1054 FILLER_0_24_192
*1055 FILLER_0_24_197
*1056 FILLER_0_24_205
*1057 FILLER_0_24_232
*1058 FILLER_0_24_26
*1059 FILLER_0_24_29
*1060 FILLER_0_24_39
*1061 FILLER_0_24_43
*1062 FILLER_0_24_47
*1063 FILLER_0_24_51
*1064 FILLER_0_24_6
*1065 FILLER_0_24_63
*1066 FILLER_0_24_75
*1067 FILLER_0_24_83
*1068 FILLER_0_24_88
*1069 FILLER_0_24_92
*1070 FILLER_0_25_103
*1071 FILLER_0_25_111
*1072 FILLER_0_25_116
*1073 FILLER_0_25_120
*1074 FILLER_0_25_132
*1075 FILLER_0_25_144
*1076 FILLER_0_25_15
*1077 FILLER_0_25_156
*1078 FILLER_0_25_164
*1079 FILLER_0_25_169
*1080 FILLER_0_25_192
*1081 FILLER_0_25_204
*1082 FILLER_0_25_216
*1083 FILLER_0_25_225
*1084 FILLER_0_25_27
*1085 FILLER_0_25_3
*1086 FILLER_0_25_41
*1087 FILLER_0_25_53
*1088 FILLER_0_25_57
*1089 FILLER_0_25_69
*1090 FILLER_0_25_83
*1091 FILLER_0_25_87
*1092 FILLER_0_25_91
*1093 FILLER_0_26_109
*1094 FILLER_0_26_11
*1095 FILLER_0_26_121
*1096 FILLER_0_26_133
*1097 FILLER_0_26_139
*1098 FILLER_0_26_141
*1099 FILLER_0_26_153
*1100 FILLER_0_26_165
*1101 FILLER_0_26_17
*1102 FILLER_0_26_177
*1103 FILLER_0_26_189
*1104 FILLER_0_26_195
*1105 FILLER_0_26_197
*1106 FILLER_0_26_209
*1107 FILLER_0_26_21
*1108 FILLER_0_26_221
*1109 FILLER_0_26_27
*1110 FILLER_0_26_29
*1111 FILLER_0_26_3
*1112 FILLER_0_26_37
*1113 FILLER_0_26_43
*1114 FILLER_0_26_47
*1115 FILLER_0_26_59
*1116 FILLER_0_26_71
*1117 FILLER_0_26_83
*1118 FILLER_0_26_85
*1119 FILLER_0_26_97
*1120 FILLER_0_27_103
*1121 FILLER_0_27_107
*1122 FILLER_0_27_111
*1123 FILLER_0_27_113
*1124 FILLER_0_27_117
*1125 FILLER_0_27_124
*1126 FILLER_0_27_128
*1127 FILLER_0_27_140
*1128 FILLER_0_27_15
*1129 FILLER_0_27_152
*1130 FILLER_0_27_155
*1131 FILLER_0_27_167
*1132 FILLER_0_27_169
*1133 FILLER_0_27_181
*1134 FILLER_0_27_193
*1135 FILLER_0_27_205
*1136 FILLER_0_27_217
*1137 FILLER_0_27_223
*1138 FILLER_0_27_225
*1139 FILLER_0_27_27
*1140 FILLER_0_27_3
*1141 FILLER_0_27_39
*1142 FILLER_0_27_51
*1143 FILLER_0_27_55
*1144 FILLER_0_27_57
*1145 FILLER_0_27_69
*1146 FILLER_0_27_81
*1147 FILLER_0_27_93
*1148 FILLER_0_27_99
*1149 FILLER_0_28_120
*1150 FILLER_0_28_132
*1151 FILLER_0_28_136
*1152 FILLER_0_28_141
*1153 FILLER_0_28_147
*1154 FILLER_0_28_15
*1155 FILLER_0_28_156
*1156 FILLER_0_28_161
*1157 FILLER_0_28_165
*1158 FILLER_0_28_169
*1159 FILLER_0_28_181
*1160 FILLER_0_28_192
*1161 FILLER_0_28_204
*1162 FILLER_0_28_208
*1163 FILLER_0_28_220
*1164 FILLER_0_28_224
*1165 FILLER_0_28_27
*1166 FILLER_0_28_29
*1167 FILLER_0_28_3
*1168 FILLER_0_28_35
*1169 FILLER_0_28_39
*1170 FILLER_0_28_43
*1171 FILLER_0_28_61
*1172 FILLER_0_28_65
*1173 FILLER_0_28_69
*1174 FILLER_0_28_81
*1175 FILLER_0_28_85
*1176 FILLER_0_29_102
*1177 FILLER_0_29_108
*1178 FILLER_0_29_113
*1179 FILLER_0_29_117
*1180 FILLER_0_29_138
*1181 FILLER_0_29_142
*1182 FILLER_0_29_15
*1183 FILLER_0_29_154
*1184 FILLER_0_29_166
*1185 FILLER_0_29_169
*1186 FILLER_0_29_181
*1187 FILLER_0_29_184
*1188 FILLER_0_29_207
*1189 FILLER_0_29_219
*1190 FILLER_0_29_223
*1191 FILLER_0_29_225
*1192 FILLER_0_29_23
*1193 FILLER_0_29_3
*1194 FILLER_0_29_49
*1195 FILLER_0_29_53
*1196 FILLER_0_29_57
*1197 FILLER_0_29_69
*1198 FILLER_0_29_81
*1199 FILLER_0_29_89
*1200 FILLER_0_2_108
*1201 FILLER_0_2_120
*1202 FILLER_0_2_132
*1203 FILLER_0_2_141
*1204 FILLER_0_2_149
*1205 FILLER_0_2_15
*1206 FILLER_0_2_153
*1207 FILLER_0_2_173
*1208 FILLER_0_2_177
*1209 FILLER_0_2_181
*1210 FILLER_0_2_193
*1211 FILLER_0_2_197
*1212 FILLER_0_2_203
*1213 FILLER_0_2_207
*1214 FILLER_0_2_219
*1215 FILLER_0_2_231
*1216 FILLER_0_2_25
*1217 FILLER_0_2_29
*1218 FILLER_0_2_3
*1219 FILLER_0_2_35
*1220 FILLER_0_2_43
*1221 FILLER_0_2_47
*1222 FILLER_0_2_51
*1223 FILLER_0_2_63
*1224 FILLER_0_2_71
*1225 FILLER_0_2_74
*1226 FILLER_0_2_82
*1227 FILLER_0_2_85
*1228 FILLER_0_2_92
*1229 FILLER_0_2_96
*1230 FILLER_0_30_100
*1231 FILLER_0_30_104
*1232 FILLER_0_30_114
*1233 FILLER_0_30_119
*1234 FILLER_0_30_123
*1235 FILLER_0_30_135
*1236 FILLER_0_30_139
*1237 FILLER_0_30_141
*1238 FILLER_0_30_149
*1239 FILLER_0_30_15
*1240 FILLER_0_30_171
*1241 FILLER_0_30_183
*1242 FILLER_0_30_186
*1243 FILLER_0_30_194
*1244 FILLER_0_30_197
*1245 FILLER_0_30_209
*1246 FILLER_0_30_217
*1247 FILLER_0_30_222
*1248 FILLER_0_30_226
*1249 FILLER_0_30_27
*1250 FILLER_0_30_29
*1251 FILLER_0_30_3
*1252 FILLER_0_30_41
*1253 FILLER_0_30_53
*1254 FILLER_0_30_65
*1255 FILLER_0_30_71
*1256 FILLER_0_30_77
*1257 FILLER_0_30_83
*1258 FILLER_0_30_85
*1259 FILLER_0_30_97
*1260 FILLER_0_31_107
*1261 FILLER_0_31_111
*1262 FILLER_0_31_113
*1263 FILLER_0_31_125
*1264 FILLER_0_31_137
*1265 FILLER_0_31_15
*1266 FILLER_0_31_169
*1267 FILLER_0_31_173
*1268 FILLER_0_31_183
*1269 FILLER_0_31_195
*1270 FILLER_0_31_207
*1271 FILLER_0_31_211
*1272 FILLER_0_31_215
*1273 FILLER_0_31_223
*1274 FILLER_0_31_225
*1275 FILLER_0_31_27
*1276 FILLER_0_31_3
*1277 FILLER_0_31_39
*1278 FILLER_0_31_51
*1279 FILLER_0_31_55
*1280 FILLER_0_31_57
*1281 FILLER_0_31_65
*1282 FILLER_0_31_71
*1283 FILLER_0_31_75
*1284 FILLER_0_31_87
*1285 FILLER_0_31_99
*1286 FILLER_0_32_103
*1287 FILLER_0_32_107
*1288 FILLER_0_32_111
*1289 FILLER_0_32_114
*1290 FILLER_0_32_126
*1291 FILLER_0_32_138
*1292 FILLER_0_32_141
*1293 FILLER_0_32_149
*1294 FILLER_0_32_15
*1295 FILLER_0_32_155
*1296 FILLER_0_32_159
*1297 FILLER_0_32_165
*1298 FILLER_0_32_174
*1299 FILLER_0_32_178
*1300 FILLER_0_32_182
*1301 FILLER_0_32_191
*1302 FILLER_0_32_195
*1303 FILLER_0_32_197
*1304 FILLER_0_32_209
*1305 FILLER_0_32_221
*1306 FILLER_0_32_27
*1307 FILLER_0_32_29
*1308 FILLER_0_32_3
*1309 FILLER_0_32_41
*1310 FILLER_0_32_53
*1311 FILLER_0_32_65
*1312 FILLER_0_32_77
*1313 FILLER_0_32_83
*1314 FILLER_0_32_85
*1315 FILLER_0_32_99
*1316 FILLER_0_33_105
*1317 FILLER_0_33_136
*1318 FILLER_0_33_140
*1319 FILLER_0_33_152
*1320 FILLER_0_33_160
*1321 FILLER_0_33_164
*1322 FILLER_0_33_169
*1323 FILLER_0_33_181
*1324 FILLER_0_33_19
*1325 FILLER_0_33_193
*1326 FILLER_0_33_205
*1327 FILLER_0_33_217
*1328 FILLER_0_33_223
*1329 FILLER_0_33_225
*1330 FILLER_0_33_229
*1331 FILLER_0_33_23
*1332 FILLER_0_33_27
*1333 FILLER_0_33_3
*1334 FILLER_0_33_35
*1335 FILLER_0_33_47
*1336 FILLER_0_33_51
*1337 FILLER_0_33_55
*1338 FILLER_0_33_57
*1339 FILLER_0_33_69
*1340 FILLER_0_33_81
*1341 FILLER_0_33_93
*1342 FILLER_0_34_109
*1343 FILLER_0_34_121
*1344 FILLER_0_34_133
*1345 FILLER_0_34_139
*1346 FILLER_0_34_144
*1347 FILLER_0_34_148
*1348 FILLER_0_34_15
*1349 FILLER_0_34_152
*1350 FILLER_0_34_186
*1351 FILLER_0_34_190
*1352 FILLER_0_34_194
*1353 FILLER_0_34_197
*1354 FILLER_0_34_201
*1355 FILLER_0_34_204
*1356 FILLER_0_34_208
*1357 FILLER_0_34_213
*1358 FILLER_0_34_225
*1359 FILLER_0_34_27
*1360 FILLER_0_34_29
*1361 FILLER_0_34_3
*1362 FILLER_0_34_41
*1363 FILLER_0_34_54
*1364 FILLER_0_34_58
*1365 FILLER_0_34_62
*1366 FILLER_0_34_74
*1367 FILLER_0_34_82
*1368 FILLER_0_34_85
*1369 FILLER_0_34_97
*1370 FILLER_0_35_106
*1371 FILLER_0_35_113
*1372 FILLER_0_35_117
*1373 FILLER_0_35_143
*1374 FILLER_0_35_147
*1375 FILLER_0_35_15
*1376 FILLER_0_35_159
*1377 FILLER_0_35_162
*1378 FILLER_0_35_166
*1379 FILLER_0_35_169
*1380 FILLER_0_35_180
*1381 FILLER_0_35_184
*1382 FILLER_0_35_188
*1383 FILLER_0_35_196
*1384 FILLER_0_35_200
*1385 FILLER_0_35_204
*1386 FILLER_0_35_221
*1387 FILLER_0_35_225
*1388 FILLER_0_35_27
*1389 FILLER_0_35_3
*1390 FILLER_0_35_39
*1391 FILLER_0_35_51
*1392 FILLER_0_35_55
*1393 FILLER_0_35_57
*1394 FILLER_0_35_69
*1395 FILLER_0_35_81
*1396 FILLER_0_35_89
*1397 FILLER_0_35_94
*1398 FILLER_0_36_109
*1399 FILLER_0_36_121
*1400 FILLER_0_36_133
*1401 FILLER_0_36_139
*1402 FILLER_0_36_141
*1403 FILLER_0_36_149
*1404 FILLER_0_36_15
*1405 FILLER_0_36_161
*1406 FILLER_0_36_169
*1407 FILLER_0_36_173
*1408 FILLER_0_36_181
*1409 FILLER_0_36_185
*1410 FILLER_0_36_189
*1411 FILLER_0_36_193
*1412 FILLER_0_36_197
*1413 FILLER_0_36_203
*1414 FILLER_0_36_206
*1415 FILLER_0_36_211
*1416 FILLER_0_36_215
*1417 FILLER_0_36_227
*1418 FILLER_0_36_27
*1419 FILLER_0_36_29
*1420 FILLER_0_36_3
*1421 FILLER_0_36_41
*1422 FILLER_0_36_53
*1423 FILLER_0_36_65
*1424 FILLER_0_36_77
*1425 FILLER_0_36_83
*1426 FILLER_0_36_85
*1427 FILLER_0_36_97
*1428 FILLER_0_37_107
*1429 FILLER_0_37_139
*1430 FILLER_0_37_143
*1431 FILLER_0_37_147
*1432 FILLER_0_37_15
*1433 FILLER_0_37_159
*1434 FILLER_0_37_167
*1435 FILLER_0_37_169
*1436 FILLER_0_37_181
*1437 FILLER_0_37_193
*1438 FILLER_0_37_201
*1439 FILLER_0_37_208
*1440 FILLER_0_37_212
*1441 FILLER_0_37_220
*1442 FILLER_0_37_231
*1443 FILLER_0_37_27
*1444 FILLER_0_37_3
*1445 FILLER_0_37_39
*1446 FILLER_0_37_51
*1447 FILLER_0_37_55
*1448 FILLER_0_37_71
*1449 FILLER_0_37_75
*1450 FILLER_0_37_87
*1451 FILLER_0_37_99
*1452 FILLER_0_38_109
*1453 FILLER_0_38_121
*1454 FILLER_0_38_129
*1455 FILLER_0_38_139
*1456 FILLER_0_38_141
*1457 FILLER_0_38_145
*1458 FILLER_0_38_149
*1459 FILLER_0_38_15
*1460 FILLER_0_38_161
*1461 FILLER_0_38_173
*1462 FILLER_0_38_185
*1463 FILLER_0_38_193
*1464 FILLER_0_38_200
*1465 FILLER_0_38_204
*1466 FILLER_0_38_216
*1467 FILLER_0_38_228
*1468 FILLER_0_38_27
*1469 FILLER_0_38_29
*1470 FILLER_0_38_3
*1471 FILLER_0_38_33
*1472 FILLER_0_38_55
*1473 FILLER_0_38_59
*1474 FILLER_0_38_63
*1475 FILLER_0_38_75
*1476 FILLER_0_38_83
*1477 FILLER_0_38_85
*1478 FILLER_0_38_97
*1479 FILLER_0_39_105
*1480 FILLER_0_39_111
*1481 FILLER_0_39_113
*1482 FILLER_0_39_125
*1483 FILLER_0_39_142
*1484 FILLER_0_39_149
*1485 FILLER_0_39_15
*1486 FILLER_0_39_153
*1487 FILLER_0_39_165
*1488 FILLER_0_39_169
*1489 FILLER_0_39_181
*1490 FILLER_0_39_193
*1491 FILLER_0_39_205
*1492 FILLER_0_39_217
*1493 FILLER_0_39_223
*1494 FILLER_0_39_225
*1495 FILLER_0_39_27
*1496 FILLER_0_39_3
*1497 FILLER_0_39_31
*1498 FILLER_0_39_57
*1499 FILLER_0_39_61
*1500 FILLER_0_39_65
*1501 FILLER_0_39_69
*1502 FILLER_0_39_81
*1503 FILLER_0_39_93
*1504 FILLER_0_3_102
*1505 FILLER_0_3_110
*1506 FILLER_0_3_113
*1507 FILLER_0_3_117
*1508 FILLER_0_3_12
*1509 FILLER_0_3_121
*1510 FILLER_0_3_133
*1511 FILLER_0_3_139
*1512 FILLER_0_3_147
*1513 FILLER_0_3_153
*1514 FILLER_0_3_157
*1515 FILLER_0_3_161
*1516 FILLER_0_3_167
*1517 FILLER_0_3_169
*1518 FILLER_0_3_17
*1519 FILLER_0_3_181
*1520 FILLER_0_3_193
*1521 FILLER_0_3_205
*1522 FILLER_0_3_217
*1523 FILLER_0_3_223
*1524 FILLER_0_3_225
*1525 FILLER_0_3_3
*1526 FILLER_0_3_40
*1527 FILLER_0_3_44
*1528 FILLER_0_3_48
*1529 FILLER_0_3_57
*1530 FILLER_0_3_72
*1531 FILLER_0_3_76
*1532 FILLER_0_3_79
*1533 FILLER_0_3_9
*1534 FILLER_0_3_90
*1535 FILLER_0_3_94
*1536 FILLER_0_3_98
*1537 FILLER_0_40_101
*1538 FILLER_0_40_113
*1539 FILLER_0_40_125
*1540 FILLER_0_40_137
*1541 FILLER_0_40_141
*1542 FILLER_0_40_145
*1543 FILLER_0_40_15
*1544 FILLER_0_40_153
*1545 FILLER_0_40_164
*1546 FILLER_0_40_168
*1547 FILLER_0_40_180
*1548 FILLER_0_40_192
*1549 FILLER_0_40_197
*1550 FILLER_0_40_209
*1551 FILLER_0_40_215
*1552 FILLER_0_40_218
*1553 FILLER_0_40_23
*1554 FILLER_0_40_230
*1555 FILLER_0_40_29
*1556 FILLER_0_40_3
*1557 FILLER_0_40_33
*1558 FILLER_0_40_37
*1559 FILLER_0_40_40
*1560 FILLER_0_40_44
*1561 FILLER_0_40_48
*1562 FILLER_0_40_52
*1563 FILLER_0_40_56
*1564 FILLER_0_40_60
*1565 FILLER_0_40_68
*1566 FILLER_0_40_72
*1567 FILLER_0_40_82
*1568 FILLER_0_40_85
*1569 FILLER_0_40_89
*1570 FILLER_0_41_105
*1571 FILLER_0_41_11
*1572 FILLER_0_41_111
*1573 FILLER_0_41_113
*1574 FILLER_0_41_125
*1575 FILLER_0_41_137
*1576 FILLER_0_41_149
*1577 FILLER_0_41_15
*1578 FILLER_0_41_153
*1579 FILLER_0_41_163
*1580 FILLER_0_41_167
*1581 FILLER_0_41_169
*1582 FILLER_0_41_181
*1583 FILLER_0_41_193
*1584 FILLER_0_41_205
*1585 FILLER_0_41_211
*1586 FILLER_0_41_214
*1587 FILLER_0_41_223
*1588 FILLER_0_41_225
*1589 FILLER_0_41_3
*1590 FILLER_0_41_48
*1591 FILLER_0_41_52
*1592 FILLER_0_41_57
*1593 FILLER_0_41_69
*1594 FILLER_0_41_7
*1595 FILLER_0_41_81
*1596 FILLER_0_41_93
*1597 FILLER_0_42_101
*1598 FILLER_0_42_113
*1599 FILLER_0_42_12
*1600 FILLER_0_42_121
*1601 FILLER_0_42_125
*1602 FILLER_0_42_133
*1603 FILLER_0_42_139
*1604 FILLER_0_42_141
*1605 FILLER_0_42_153
*1606 FILLER_0_42_157
*1607 FILLER_0_42_169
*1608 FILLER_0_42_175
*1609 FILLER_0_42_178
*1610 FILLER_0_42_186
*1611 FILLER_0_42_190
*1612 FILLER_0_42_197
*1613 FILLER_0_42_209
*1614 FILLER_0_42_221
*1615 FILLER_0_42_29
*1616 FILLER_0_42_33
*1617 FILLER_0_42_39
*1618 FILLER_0_42_43
*1619 FILLER_0_42_48
*1620 FILLER_0_42_52
*1621 FILLER_0_42_64
*1622 FILLER_0_42_7
*1623 FILLER_0_42_76
*1624 FILLER_0_42_85
*1625 FILLER_0_42_89
*1626 FILLER_0_43_106
*1627 FILLER_0_43_113
*1628 FILLER_0_43_125
*1629 FILLER_0_43_137
*1630 FILLER_0_43_14
*1631 FILLER_0_43_149
*1632 FILLER_0_43_161
*1633 FILLER_0_43_167
*1634 FILLER_0_43_169
*1635 FILLER_0_43_181
*1636 FILLER_0_43_193
*1637 FILLER_0_43_20
*1638 FILLER_0_43_205
*1639 FILLER_0_43_217
*1640 FILLER_0_43_223
*1641 FILLER_0_43_225
*1642 FILLER_0_43_229
*1643 FILLER_0_43_24
*1644 FILLER_0_43_28
*1645 FILLER_0_43_3
*1646 FILLER_0_43_32
*1647 FILLER_0_43_36
*1648 FILLER_0_43_48
*1649 FILLER_0_43_57
*1650 FILLER_0_43_69
*1651 FILLER_0_43_77
*1652 FILLER_0_43_83
*1653 FILLER_0_43_87
*1654 FILLER_0_43_95
*1655 FILLER_0_44_109
*1656 FILLER_0_44_121
*1657 FILLER_0_44_133
*1658 FILLER_0_44_139
*1659 FILLER_0_44_141
*1660 FILLER_0_44_15
*1661 FILLER_0_44_153
*1662 FILLER_0_44_165
*1663 FILLER_0_44_177
*1664 FILLER_0_44_189
*1665 FILLER_0_44_195
*1666 FILLER_0_44_197
*1667 FILLER_0_44_209
*1668 FILLER_0_44_212
*1669 FILLER_0_44_224
*1670 FILLER_0_44_232
*1671 FILLER_0_44_27
*1672 FILLER_0_44_29
*1673 FILLER_0_44_3
*1674 FILLER_0_44_41
*1675 FILLER_0_44_53
*1676 FILLER_0_44_65
*1677 FILLER_0_44_77
*1678 FILLER_0_44_83
*1679 FILLER_0_44_85
*1680 FILLER_0_44_97
*1681 FILLER_0_45_102
*1682 FILLER_0_45_106
*1683 FILLER_0_45_110
*1684 FILLER_0_45_113
*1685 FILLER_0_45_125
*1686 FILLER_0_45_137
*1687 FILLER_0_45_149
*1688 FILLER_0_45_15
*1689 FILLER_0_45_159
*1690 FILLER_0_45_167
*1691 FILLER_0_45_169
*1692 FILLER_0_45_181
*1693 FILLER_0_45_193
*1694 FILLER_0_45_205
*1695 FILLER_0_45_208
*1696 FILLER_0_45_212
*1697 FILLER_0_45_219
*1698 FILLER_0_45_223
*1699 FILLER_0_45_225
*1700 FILLER_0_45_27
*1701 FILLER_0_45_3
*1702 FILLER_0_45_39
*1703 FILLER_0_45_51
*1704 FILLER_0_45_55
*1705 FILLER_0_45_57
*1706 FILLER_0_45_69
*1707 FILLER_0_45_81
*1708 FILLER_0_45_93
*1709 FILLER_0_46_105
*1710 FILLER_0_46_113
*1711 FILLER_0_46_135
*1712 FILLER_0_46_139
*1713 FILLER_0_46_141
*1714 FILLER_0_46_15
*1715 FILLER_0_46_153
*1716 FILLER_0_46_157
*1717 FILLER_0_46_166
*1718 FILLER_0_46_169
*1719 FILLER_0_46_181
*1720 FILLER_0_46_193
*1721 FILLER_0_46_197
*1722 FILLER_0_46_225
*1723 FILLER_0_46_229
*1724 FILLER_0_46_27
*1725 FILLER_0_46_29
*1726 FILLER_0_46_3
*1727 FILLER_0_46_41
*1728 FILLER_0_46_53
*1729 FILLER_0_46_57
*1730 FILLER_0_46_82
*1731 FILLER_0_46_85
*1732 FILLER_0_46_89
*1733 FILLER_0_46_97
*1734 FILLER_0_4_10
*1735 FILLER_0_4_104
*1736 FILLER_0_4_116
*1737 FILLER_0_4_128
*1738 FILLER_0_4_134
*1739 FILLER_0_4_137
*1740 FILLER_0_4_14
*1741 FILLER_0_4_145
*1742 FILLER_0_4_149
*1743 FILLER_0_4_161
*1744 FILLER_0_4_173
*1745 FILLER_0_4_185
*1746 FILLER_0_4_193
*1747 FILLER_0_4_197
*1748 FILLER_0_4_208
*1749 FILLER_0_4_212
*1750 FILLER_0_4_22
*1751 FILLER_0_4_224
*1752 FILLER_0_4_232
*1753 FILLER_0_4_26
*1754 FILLER_0_4_29
*1755 FILLER_0_4_33
*1756 FILLER_0_4_36
*1757 FILLER_0_4_48
*1758 FILLER_0_4_60
*1759 FILLER_0_4_68
*1760 FILLER_0_4_77
*1761 FILLER_0_4_81
*1762 FILLER_0_4_85
*1763 FILLER_0_4_89
*1764 FILLER_0_4_92
*1765 FILLER_0_5_101
*1766 FILLER_0_5_105
*1767 FILLER_0_5_109
*1768 FILLER_0_5_113
*1769 FILLER_0_5_12
*1770 FILLER_0_5_125
*1771 FILLER_0_5_137
*1772 FILLER_0_5_141
*1773 FILLER_0_5_145
*1774 FILLER_0_5_157
*1775 FILLER_0_5_16
*1776 FILLER_0_5_165
*1777 FILLER_0_5_169
*1778 FILLER_0_5_181
*1779 FILLER_0_5_194
*1780 FILLER_0_5_20
*1781 FILLER_0_5_206
*1782 FILLER_0_5_218
*1783 FILLER_0_5_225
*1784 FILLER_0_5_24
*1785 FILLER_0_5_36
*1786 FILLER_0_5_48
*1787 FILLER_0_5_57
*1788 FILLER_0_5_69
*1789 FILLER_0_5_81
*1790 FILLER_0_5_89
*1791 FILLER_0_6_105
*1792 FILLER_0_6_113
*1793 FILLER_0_6_120
*1794 FILLER_0_6_124
*1795 FILLER_0_6_128
*1796 FILLER_0_6_14
*1797 FILLER_0_6_141
*1798 FILLER_0_6_172
*1799 FILLER_0_6_176
*1800 FILLER_0_6_18
*1801 FILLER_0_6_180
*1802 FILLER_0_6_192
*1803 FILLER_0_6_197
*1804 FILLER_0_6_209
*1805 FILLER_0_6_22
*1806 FILLER_0_6_221
*1807 FILLER_0_6_29
*1808 FILLER_0_6_3
*1809 FILLER_0_6_41
*1810 FILLER_0_6_45
*1811 FILLER_0_6_54
*1812 FILLER_0_6_58
*1813 FILLER_0_6_62
*1814 FILLER_0_6_66
*1815 FILLER_0_6_78
*1816 FILLER_0_6_85
*1817 FILLER_0_6_89
*1818 FILLER_0_6_93
*1819 FILLER_0_7_100
*1820 FILLER_0_7_104
*1821 FILLER_0_7_113
*1822 FILLER_0_7_125
*1823 FILLER_0_7_151
*1824 FILLER_0_7_155
*1825 FILLER_0_7_163
*1826 FILLER_0_7_169
*1827 FILLER_0_7_173
*1828 FILLER_0_7_185
*1829 FILLER_0_7_193
*1830 FILLER_0_7_197
*1831 FILLER_0_7_209
*1832 FILLER_0_7_221
*1833 FILLER_0_7_225
*1834 FILLER_0_7_28
*1835 FILLER_0_7_3
*1836 FILLER_0_7_32
*1837 FILLER_0_7_44
*1838 FILLER_0_7_57
*1839 FILLER_0_7_69
*1840 FILLER_0_7_96
*1841 FILLER_0_8_10
*1842 FILLER_0_8_109
*1843 FILLER_0_8_121
*1844 FILLER_0_8_133
*1845 FILLER_0_8_139
*1846 FILLER_0_8_14
*1847 FILLER_0_8_141
*1848 FILLER_0_8_153
*1849 FILLER_0_8_165
*1850 FILLER_0_8_18
*1851 FILLER_0_8_194
*1852 FILLER_0_8_208
*1853 FILLER_0_8_220
*1854 FILLER_0_8_26
*1855 FILLER_0_8_29
*1856 FILLER_0_8_3
*1857 FILLER_0_8_37
*1858 FILLER_0_8_48
*1859 FILLER_0_8_52
*1860 FILLER_0_8_64
*1861 FILLER_0_8_76
*1862 FILLER_0_8_85
*1863 FILLER_0_8_97
*1864 FILLER_0_9_105
*1865 FILLER_0_9_111
*1866 FILLER_0_9_113
*1867 FILLER_0_9_125
*1868 FILLER_0_9_137
*1869 FILLER_0_9_147
*1870 FILLER_0_9_15
*1871 FILLER_0_9_152
*1872 FILLER_0_9_156
*1873 FILLER_0_9_164
*1874 FILLER_0_9_169
*1875 FILLER_0_9_202
*1876 FILLER_0_9_214
*1877 FILLER_0_9_222
*1878 FILLER_0_9_225
*1879 FILLER_0_9_27
*1880 FILLER_0_9_3
*1881 FILLER_0_9_39
*1882 FILLER_0_9_42
*1883 FILLER_0_9_54
*1884 FILLER_0_9_57
*1885 FILLER_0_9_69
*1886 FILLER_0_9_81
*1887 FILLER_0_9_93
*1888 PHY_EDGE_ROW_0_Left_47
*1889 PHY_EDGE_ROW_0_Right_0
*1890 PHY_EDGE_ROW_10_Left_57
*1891 PHY_EDGE_ROW_10_Right_10
*1892 PHY_EDGE_ROW_11_Left_58
*1893 PHY_EDGE_ROW_11_Right_11
*1894 PHY_EDGE_ROW_12_Left_59
*1895 PHY_EDGE_ROW_12_Right_12
*1896 PHY_EDGE_ROW_13_Left_60
*1897 PHY_EDGE_ROW_13_Right_13
*1898 PHY_EDGE_ROW_14_Left_61
*1899 PHY_EDGE_ROW_14_Right_14
*1900 PHY_EDGE_ROW_15_Left_62
*1901 PHY_EDGE_ROW_15_Right_15
*1902 PHY_EDGE_ROW_16_Left_63
*1903 PHY_EDGE_ROW_16_Right_16
*1904 PHY_EDGE_ROW_17_Left_64
*1905 PHY_EDGE_ROW_17_Right_17
*1906 PHY_EDGE_ROW_18_Left_65
*1907 PHY_EDGE_ROW_18_Right_18
*1908 PHY_EDGE_ROW_19_Left_66
*1909 PHY_EDGE_ROW_19_Right_19
*1910 PHY_EDGE_ROW_1_Left_48
*1911 PHY_EDGE_ROW_1_Right_1
*1912 PHY_EDGE_ROW_20_Left_67
*1913 PHY_EDGE_ROW_20_Right_20
*1914 PHY_EDGE_ROW_21_Left_68
*1915 PHY_EDGE_ROW_21_Right_21
*1916 PHY_EDGE_ROW_22_Left_69
*1917 PHY_EDGE_ROW_22_Right_22
*1918 PHY_EDGE_ROW_23_Left_70
*1919 PHY_EDGE_ROW_23_Right_23
*1920 PHY_EDGE_ROW_24_Left_71
*1921 PHY_EDGE_ROW_24_Right_24
*1922 PHY_EDGE_ROW_25_Left_72
*1923 PHY_EDGE_ROW_25_Right_25
*1924 PHY_EDGE_ROW_26_Left_73
*1925 PHY_EDGE_ROW_26_Right_26
*1926 PHY_EDGE_ROW_27_Left_74
*1927 PHY_EDGE_ROW_27_Right_27
*1928 PHY_EDGE_ROW_28_Left_75
*1929 PHY_EDGE_ROW_28_Right_28
*1930 PHY_EDGE_ROW_29_Left_76
*1931 PHY_EDGE_ROW_29_Right_29
*1932 PHY_EDGE_ROW_2_Left_49
*1933 PHY_EDGE_ROW_2_Right_2
*1934 PHY_EDGE_ROW_30_Left_77
*1935 PHY_EDGE_ROW_30_Right_30
*1936 PHY_EDGE_ROW_31_Left_78
*1937 PHY_EDGE_ROW_31_Right_31
*1938 PHY_EDGE_ROW_32_Left_79
*1939 PHY_EDGE_ROW_32_Right_32
*1940 PHY_EDGE_ROW_33_Left_80
*1941 PHY_EDGE_ROW_33_Right_33
*1942 PHY_EDGE_ROW_34_Left_81
*1943 PHY_EDGE_ROW_34_Right_34
*1944 PHY_EDGE_ROW_35_Left_82
*1945 PHY_EDGE_ROW_35_Right_35
*1946 PHY_EDGE_ROW_36_Left_83
*1947 PHY_EDGE_ROW_36_Right_36
*1948 PHY_EDGE_ROW_37_Left_84
*1949 PHY_EDGE_ROW_37_Right_37
*1950 PHY_EDGE_ROW_38_Left_85
*1951 PHY_EDGE_ROW_38_Right_38
*1952 PHY_EDGE_ROW_39_Left_86
*1953 PHY_EDGE_ROW_39_Right_39
*1954 PHY_EDGE_ROW_3_Left_50
*1955 PHY_EDGE_ROW_3_Right_3
*1956 PHY_EDGE_ROW_40_Left_87
*1957 PHY_EDGE_ROW_40_Right_40
*1958 PHY_EDGE_ROW_41_Left_88
*1959 PHY_EDGE_ROW_41_Right_41
*1960 PHY_EDGE_ROW_42_Left_89
*1961 PHY_EDGE_ROW_42_Right_42
*1962 PHY_EDGE_ROW_43_Left_90
*1963 PHY_EDGE_ROW_43_Right_43
*1964 PHY_EDGE_ROW_44_Left_91
*1965 PHY_EDGE_ROW_44_Right_44
*1966 PHY_EDGE_ROW_45_Left_92
*1967 PHY_EDGE_ROW_45_Right_45
*1968 PHY_EDGE_ROW_46_Left_93
*1969 PHY_EDGE_ROW_46_Right_46
*1970 PHY_EDGE_ROW_4_Left_51
*1971 PHY_EDGE_ROW_4_Right_4
*1972 PHY_EDGE_ROW_5_Left_52
*1973 PHY_EDGE_ROW_5_Right_5
*1974 PHY_EDGE_ROW_6_Left_53
*1975 PHY_EDGE_ROW_6_Right_6
*1976 PHY_EDGE_ROW_7_Left_54
*1977 PHY_EDGE_ROW_7_Right_7
*1978 PHY_EDGE_ROW_8_Left_55
*1979 PHY_EDGE_ROW_8_Right_8
*1980 PHY_EDGE_ROW_9_Left_56
*1981 PHY_EDGE_ROW_9_Right_9
*1982 TAP_TAPCELL_ROW_0_100
*1983 TAP_TAPCELL_ROW_0_101
*1984 TAP_TAPCELL_ROW_0_94
*1985 TAP_TAPCELL_ROW_0_95
*1986 TAP_TAPCELL_ROW_0_96
*1987 TAP_TAPCELL_ROW_0_97
*1988 TAP_TAPCELL_ROW_0_98
*1989 TAP_TAPCELL_ROW_0_99
*1990 TAP_TAPCELL_ROW_10_138
*1991 TAP_TAPCELL_ROW_10_139
*1992 TAP_TAPCELL_ROW_10_140
*1993 TAP_TAPCELL_ROW_10_141
*1994 TAP_TAPCELL_ROW_11_142
*1995 TAP_TAPCELL_ROW_11_143
*1996 TAP_TAPCELL_ROW_11_144
*1997 TAP_TAPCELL_ROW_11_145
*1998 TAP_TAPCELL_ROW_12_146
*1999 TAP_TAPCELL_ROW_12_147
*2000 TAP_TAPCELL_ROW_12_148
*2001 TAP_TAPCELL_ROW_12_149
*2002 TAP_TAPCELL_ROW_13_150
*2003 TAP_TAPCELL_ROW_13_151
*2004 TAP_TAPCELL_ROW_13_152
*2005 TAP_TAPCELL_ROW_13_153
*2006 TAP_TAPCELL_ROW_14_154
*2007 TAP_TAPCELL_ROW_14_155
*2008 TAP_TAPCELL_ROW_14_156
*2009 TAP_TAPCELL_ROW_14_157
*2010 TAP_TAPCELL_ROW_15_158
*2011 TAP_TAPCELL_ROW_15_159
*2012 TAP_TAPCELL_ROW_15_160
*2013 TAP_TAPCELL_ROW_15_161
*2014 TAP_TAPCELL_ROW_16_162
*2015 TAP_TAPCELL_ROW_16_163
*2016 TAP_TAPCELL_ROW_16_164
*2017 TAP_TAPCELL_ROW_16_165
*2018 TAP_TAPCELL_ROW_17_166
*2019 TAP_TAPCELL_ROW_17_167
*2020 TAP_TAPCELL_ROW_17_168
*2021 TAP_TAPCELL_ROW_17_169
*2022 TAP_TAPCELL_ROW_18_170
*2023 TAP_TAPCELL_ROW_18_171
*2024 TAP_TAPCELL_ROW_18_172
*2025 TAP_TAPCELL_ROW_18_173
*2026 TAP_TAPCELL_ROW_19_174
*2027 TAP_TAPCELL_ROW_19_175
*2028 TAP_TAPCELL_ROW_19_176
*2029 TAP_TAPCELL_ROW_19_177
*2030 TAP_TAPCELL_ROW_1_102
*2031 TAP_TAPCELL_ROW_1_103
*2032 TAP_TAPCELL_ROW_1_104
*2033 TAP_TAPCELL_ROW_1_105
*2034 TAP_TAPCELL_ROW_20_178
*2035 TAP_TAPCELL_ROW_20_179
*2036 TAP_TAPCELL_ROW_20_180
*2037 TAP_TAPCELL_ROW_20_181
*2038 TAP_TAPCELL_ROW_21_182
*2039 TAP_TAPCELL_ROW_21_183
*2040 TAP_TAPCELL_ROW_21_184
*2041 TAP_TAPCELL_ROW_21_185
*2042 TAP_TAPCELL_ROW_22_186
*2043 TAP_TAPCELL_ROW_22_187
*2044 TAP_TAPCELL_ROW_22_188
*2045 TAP_TAPCELL_ROW_22_189
*2046 TAP_TAPCELL_ROW_23_190
*2047 TAP_TAPCELL_ROW_23_191
*2048 TAP_TAPCELL_ROW_23_192
*2049 TAP_TAPCELL_ROW_23_193
*2050 TAP_TAPCELL_ROW_24_194
*2051 TAP_TAPCELL_ROW_24_195
*2052 TAP_TAPCELL_ROW_24_196
*2053 TAP_TAPCELL_ROW_24_197
*2054 TAP_TAPCELL_ROW_25_198
*2055 TAP_TAPCELL_ROW_25_199
*2056 TAP_TAPCELL_ROW_25_200
*2057 TAP_TAPCELL_ROW_25_201
*2058 TAP_TAPCELL_ROW_26_202
*2059 TAP_TAPCELL_ROW_26_203
*2060 TAP_TAPCELL_ROW_26_204
*2061 TAP_TAPCELL_ROW_26_205
*2062 TAP_TAPCELL_ROW_27_206
*2063 TAP_TAPCELL_ROW_27_207
*2064 TAP_TAPCELL_ROW_27_208
*2065 TAP_TAPCELL_ROW_27_209
*2066 TAP_TAPCELL_ROW_28_210
*2067 TAP_TAPCELL_ROW_28_211
*2068 TAP_TAPCELL_ROW_28_212
*2069 TAP_TAPCELL_ROW_28_213
*2070 TAP_TAPCELL_ROW_29_214
*2071 TAP_TAPCELL_ROW_29_215
*2072 TAP_TAPCELL_ROW_29_216
*2073 TAP_TAPCELL_ROW_29_217
*2074 TAP_TAPCELL_ROW_2_106
*2075 TAP_TAPCELL_ROW_2_107
*2076 TAP_TAPCELL_ROW_2_108
*2077 TAP_TAPCELL_ROW_2_109
*2078 TAP_TAPCELL_ROW_30_218
*2079 TAP_TAPCELL_ROW_30_219
*2080 TAP_TAPCELL_ROW_30_220
*2081 TAP_TAPCELL_ROW_30_221
*2082 TAP_TAPCELL_ROW_31_222
*2083 TAP_TAPCELL_ROW_31_223
*2084 TAP_TAPCELL_ROW_31_224
*2085 TAP_TAPCELL_ROW_31_225
*2086 TAP_TAPCELL_ROW_32_226
*2087 TAP_TAPCELL_ROW_32_227
*2088 TAP_TAPCELL_ROW_32_228
*2089 TAP_TAPCELL_ROW_32_229
*2090 TAP_TAPCELL_ROW_33_230
*2091 TAP_TAPCELL_ROW_33_231
*2092 TAP_TAPCELL_ROW_33_232
*2093 TAP_TAPCELL_ROW_33_233
*2094 TAP_TAPCELL_ROW_34_234
*2095 TAP_TAPCELL_ROW_34_235
*2096 TAP_TAPCELL_ROW_34_236
*2097 TAP_TAPCELL_ROW_34_237
*2098 TAP_TAPCELL_ROW_35_238
*2099 TAP_TAPCELL_ROW_35_239
*2100 TAP_TAPCELL_ROW_35_240
*2101 TAP_TAPCELL_ROW_35_241
*2102 TAP_TAPCELL_ROW_36_242
*2103 TAP_TAPCELL_ROW_36_243
*2104 TAP_TAPCELL_ROW_36_244
*2105 TAP_TAPCELL_ROW_36_245
*2106 TAP_TAPCELL_ROW_37_246
*2107 TAP_TAPCELL_ROW_37_247
*2108 TAP_TAPCELL_ROW_37_248
*2109 TAP_TAPCELL_ROW_37_249
*2110 TAP_TAPCELL_ROW_38_250
*2111 TAP_TAPCELL_ROW_38_251
*2112 TAP_TAPCELL_ROW_38_252
*2113 TAP_TAPCELL_ROW_38_253
*2114 TAP_TAPCELL_ROW_39_254
*2115 TAP_TAPCELL_ROW_39_255
*2116 TAP_TAPCELL_ROW_39_256
*2117 TAP_TAPCELL_ROW_39_257
*2118 TAP_TAPCELL_ROW_3_110
*2119 TAP_TAPCELL_ROW_3_111
*2120 TAP_TAPCELL_ROW_3_112
*2121 TAP_TAPCELL_ROW_3_113
*2122 TAP_TAPCELL_ROW_40_258
*2123 TAP_TAPCELL_ROW_40_259
*2124 TAP_TAPCELL_ROW_40_260
*2125 TAP_TAPCELL_ROW_40_261
*2126 TAP_TAPCELL_ROW_41_262
*2127 TAP_TAPCELL_ROW_41_263
*2128 TAP_TAPCELL_ROW_41_264
*2129 TAP_TAPCELL_ROW_41_265
*2130 TAP_TAPCELL_ROW_42_266
*2131 TAP_TAPCELL_ROW_42_267
*2132 TAP_TAPCELL_ROW_42_268
*2133 TAP_TAPCELL_ROW_42_269
*2134 TAP_TAPCELL_ROW_43_270
*2135 TAP_TAPCELL_ROW_43_271
*2136 TAP_TAPCELL_ROW_43_272
*2137 TAP_TAPCELL_ROW_43_273
*2138 TAP_TAPCELL_ROW_44_274
*2139 TAP_TAPCELL_ROW_44_275
*2140 TAP_TAPCELL_ROW_44_276
*2141 TAP_TAPCELL_ROW_44_277
*2142 TAP_TAPCELL_ROW_45_278
*2143 TAP_TAPCELL_ROW_45_279
*2144 TAP_TAPCELL_ROW_45_280
*2145 TAP_TAPCELL_ROW_45_281
*2146 TAP_TAPCELL_ROW_46_282
*2147 TAP_TAPCELL_ROW_46_283
*2148 TAP_TAPCELL_ROW_46_284
*2149 TAP_TAPCELL_ROW_46_285
*2150 TAP_TAPCELL_ROW_46_286
*2151 TAP_TAPCELL_ROW_46_287
*2152 TAP_TAPCELL_ROW_46_288
*2153 TAP_TAPCELL_ROW_46_289
*2154 TAP_TAPCELL_ROW_4_114
*2155 TAP_TAPCELL_ROW_4_115
*2156 TAP_TAPCELL_ROW_4_116
*2157 TAP_TAPCELL_ROW_4_117
*2158 TAP_TAPCELL_ROW_5_118
*2159 TAP_TAPCELL_ROW_5_119
*2160 TAP_TAPCELL_ROW_5_120
*2161 TAP_TAPCELL_ROW_5_121
*2162 TAP_TAPCELL_ROW_6_122
*2163 TAP_TAPCELL_ROW_6_123
*2164 TAP_TAPCELL_ROW_6_124
*2165 TAP_TAPCELL_ROW_6_125
*2166 TAP_TAPCELL_ROW_7_126
*2167 TAP_TAPCELL_ROW_7_127
*2168 TAP_TAPCELL_ROW_7_128
*2169 TAP_TAPCELL_ROW_7_129
*2170 TAP_TAPCELL_ROW_8_130
*2171 TAP_TAPCELL_ROW_8_131
*2172 TAP_TAPCELL_ROW_8_132
*2173 TAP_TAPCELL_ROW_8_133
*2174 TAP_TAPCELL_ROW_9_134
*2175 TAP_TAPCELL_ROW_9_135
*2176 TAP_TAPCELL_ROW_9_136
*2177 TAP_TAPCELL_ROW_9_137
*2178 _157_
*2179 _158_
*2180 _159_
*2181 _160_
*2182 _161_
*2183 _162_
*2184 _163_
*2185 _164_
*2186 _165_
*2187 _166_
*2188 _167_
*2189 _168_
*2190 _169_
*2191 _170_
*2192 _171_
*2193 _172_
*2194 _173_
*2195 _174_
*2196 _175_
*2197 _176_
*2198 _177_
*2199 _178_
*2200 _179_
*2201 _180_
*2202 _181_
*2203 _182_
*2204 _183_
*2205 _184_
*2206 _185_
*2207 _186_
*2208 _187_
*2209 _188_
*2210 _189_
*2211 _190_
*2212 _191_
*2213 _192_
*2214 _193_
*2215 _194_
*2216 _195_
*2217 _196_
*2218 _197_
*2219 _198_
*2220 _199_
*2221 _200_
*2222 _201_
*2223 _202_
*2224 _203_
*2225 _204_
*2226 _205_
*2227 _206_
*2228 _207_
*2229 _208_
*2230 _209_
*2231 _210_
*2232 _211_
*2233 _212_
*2234 _213_
*2235 _214_
*2236 _215_
*2237 _216_
*2238 _217_
*2239 _218_
*2240 _219_
*2241 _220_
*2242 _221_
*2243 _222_
*2244 _223_
*2245 _224_
*2246 _225_
*2247 _226_
*2248 _227_
*2249 _228_
*2250 _229_
*2251 _230_
*2252 _231_
*2253 _232_
*2254 _233_
*2255 _234_
*2256 _235_
*2257 _236_
*2258 _237_
*2259 _238_
*2260 _239_
*2261 _240_
*2262 _241_
*2263 _242_
*2264 _243_
*2265 _244_
*2266 _245_
*2267 _246_
*2268 _247_
*2269 _248_
*2270 _249_
*2271 _250_
*2272 _251_
*2273 _252_
*2274 _253_
*2275 _254_
*2276 _255_
*2277 _256_
*2278 _257_
*2279 _258_
*2280 _259_
*2281 _260_
*2282 _261_
*2283 _262_
*2284 _263_
*2285 _264_
*2286 _265_
*2287 _266_
*2288 _267_
*2289 _268_
*2290 _269_
*2291 _270_
*2292 _271_
*2293 _272_
*2294 _273_
*2295 _274_
*2296 _275_
*2297 _276_
*2298 _277_
*2299 _278_
*2300 _279_
*2301 _280_
*2302 _281_
*2303 _282_
*2304 _283_
*2305 _284_
*2306 _285_
*2307 _286_
*2308 _287_
*2309 _288_
*2310 _289_
*2311 _290_
*2312 _291_
*2313 _292_
*2314 _293_
*2315 _294_
*2316 _295_
*2317 _296_
*2318 _297_
*2319 _298_
*2320 _299_
*2321 _300_
*2322 _301_
*2323 _302_
*2324 _303_
*2325 _304_
*2326 _305_
*2327 _306_
*2328 _307_
*2329 _308_
*2330 _309_
*2331 _310_
*2332 _311_
*2333 _312_
*2334 _313_
*2335 _314_
*2336 _315_
*2337 _316_
*2338 _317_
*2339 _318_
*2340 _319_
*2341 _320_
*2342 _321_
*2343 _322_
*2344 _323_
*2345 _324_
*2346 _325_
*2347 _326_
*2348 _327_
*2349 _328_
*2350 _329_
*2351 _330_
*2352 _331_
*2353 _332_
*2354 _333_
*2355 _334_
*2356 _335_
*2357 _336_
*2358 _337_
*2359 _338_
*2360 _339_
*2361 _340_
*2362 _341_
*2363 _342_
*2364 _343_
*2365 _344_
*2366 _345_
*2367 _346_
*2368 _347_
*2369 _348_
*2370 _349_
*2371 _350_
*2372 _351_
*2373 _352_
*2374 _353_
*2375 _354_
*2376 _355_
*2377 _356_
*2378 _361_
*2379 clkbuf_0_clk
*2380 clkbuf_2_0__f_clk
*2381 clkbuf_2_1__f_clk
*2382 clkbuf_2_2__f_clk
*2383 clkbuf_2_3__f_clk
*2384 clkload0
*2385 clkload1
*2386 clkload2
*2387 lab3_10
*2388 lab3_11
*2389 lab3_8
*2390 lab3_9
*2391 output1
*2392 output2
*2393 output3
*2394 output4
*2395 output5
*2396 output6
*2397 output7

*PORTS
an[0] O
an[1] O
an[2] O
an[3] O
clk I
rst_button I
seg[0] O
seg[1] O
seg[2] O
seg[3] O
seg[4] O
seg[5] O
seg[6] O

*D_NET *3 0.00164817
*CONN
*P an[0] O
*I *2389:LO O *D sky130_fd_sc_hd__conb_1
*CAP
1 an[0] 0.000824083
2 *2389:LO 0.000824083
*RES
1 *2389:LO an[0] 24.9666 
*END

*D_NET *4 0.000685752
*CONN
*P an[1] O
*I *2390:HI O *D sky130_fd_sc_hd__conb_1
*CAP
1 an[1] 0.000342876
2 *2390:HI 0.000342876
*RES
1 *2390:HI an[1] 18.73 
*END

*D_NET *5 0.000620196
*CONN
*P an[2] O
*I *2387:HI O *D sky130_fd_sc_hd__conb_1
*CAP
1 an[2] 0.000310098
2 *2387:HI 0.000310098
*RES
1 *2387:HI an[2] 20.2797 
*END

*D_NET *6 0.000707311
*CONN
*P an[3] O
*I *2388:HI O *D sky130_fd_sc_hd__conb_1
*CAP
1 an[3] 0.000336067
2 *2388:HI 0.000336067
3 an[3] *104:12 3.51773e-05
*RES
1 *2388:HI an[3] 18.73 
*END

*D_NET *7 0.0165515
*CONN
*P clk I
*I *2379:A I *D sky130_fd_sc_hd__clkbuf_16
*CAP
1 clk 0.0057262
2 *2379:A 0.0057262
3 *2379:A *21:24 0.000417677
4 *2379:A *30:16 0
5 *2379:A *71:16 0.0018204
6 *2379:A *97:24 0.00119011
7 *2379:A *117:26 0.000126603
8 *2379:A *123:18 0.000221164
9 *2379:A *132:18 0
10 *2379:A *138:26 0.000499495
11 *2379:A *159:16 0.000134168
12 *2379:A *166:30 0
13 *2379:A *167:24 0.000147243
14 *2379:A *212:12 0.000336563
15 *2379:A *212:14 7.49777e-05
16 *2379:A *212:20 1.94879e-05
17 *2379:A *214:38 0
18 *2379:A *217:22 0.000111243
*RES
1 clk *2379:A 43.132 
*END

*D_NET *8 0.00508864
*CONN
*P rst_button I
*I *2300:A I *D sky130_fd_sc_hd__clkbuf_8
*CAP
1 rst_button 0.00153506
2 *2300:A 0.00153506
3 *2300:A *31:14 0
4 *2300:A *67:16 0.00192986
5 *2300:A *181:10 4.43299e-05
6 *2300:A *185:84 4.43299e-05
*RES
1 rst_button *2300:A 22.5186 
*END

*D_NET *9 0.000625661
*CONN
*P seg[0] O
*I *2391:X O *D sky130_fd_sc_hd__buf_1
*CAP
1 seg[0] 0.000312831
2 *2391:X 0.000312831
*RES
1 *2391:X seg[0] 20.2797 
*END

*D_NET *10 0.00137778
*CONN
*P seg[1] O
*I *2392:X O *D sky130_fd_sc_hd__buf_1
*CAP
1 seg[1] 0.000520722
2 *2392:X 0.000520722
3 seg[1] *2226:B 0.000162266
4 seg[1] *2226:C 3.41649e-05
5 seg[1] *126:8 0.000139907
*RES
1 *2392:X seg[1] 21.9092 
*END

*D_NET *11 0.000614204
*CONN
*P seg[2] O
*I *2393:X O *D sky130_fd_sc_hd__buf_1
*CAP
1 seg[2] 0.000297358
2 *2393:X 0.000297358
3 seg[2] *221:16 1.94879e-05
*RES
1 *2393:X seg[2] 20.2797 
*END

*D_NET *12 0.000654922
*CONN
*P seg[3] O
*I *2394:X O *D sky130_fd_sc_hd__buf_1
*CAP
1 seg[3] 0.000316616
2 *2394:X 0.000316616
3 seg[3] *220:8 2.16899e-05
*RES
1 *2394:X seg[3] 18.1229 
*END

*D_NET *13 0.000632294
*CONN
*P seg[4] O
*I *2395:X O *D sky130_fd_sc_hd__buf_1
*CAP
1 seg[4] 0.000306403
2 *2395:X 0.000306403
3 seg[4] *221:16 1.94879e-05
*RES
1 *2395:X seg[4] 20.2797 
*END

*D_NET *14 0.000656928
*CONN
*P seg[5] O
*I *2396:X O *D sky130_fd_sc_hd__buf_1
*CAP
1 seg[5] 0.000328464
2 *2396:X 0.000328464
*RES
1 *2396:X seg[5] 18.1229 
*END

*D_NET *15 0.00165769
*CONN
*P seg[6] O
*I *2397:X O *D sky130_fd_sc_hd__buf_1
*CAP
1 seg[6] 0.000729894
2 *2397:X 0.000729894
3 seg[6] *620:DIODE 0.000143375
4 seg[6] *2397:A 5.45307e-05
*RES
1 *2397:X seg[6] 26.7332 
*END

*D_NET *16 0.0103744
*CONN
*I *2373:D I *D sky130_fd_sc_hd__dfrtp_4
*I *2285:Y O *D sky130_fd_sc_hd__a21oi_1
*CAP
1 *2373:D 0.000216417
2 *2285:Y 0
3 *16:8 0.00182784
4 *16:6 0.00161143
5 *2373:D *2373:CLK 5.33005e-05
6 *2373:D *53:12 7.83587e-05
7 *2373:D *180:20 7.6644e-05
8 *2373:D *198:14 0.00043541
9 *2373:D *219:26 0.000507015
10 *16:8 *2245:A 0.000193118
11 *16:8 *36:26 0.000550106
12 *16:8 *103:14 0.0028215
13 *16:8 *156:65 0.000192622
14 *16:8 *156:71 0.000219489
15 *16:8 *171:116 0.000137327
16 *16:8 *175:16 6.14702e-06
17 *16:8 *183:12 2.99929e-05
18 *16:8 *183:150 0.000627662
19 *16:8 *192:92 0.000377573
20 *16:8 *196:14 0
21 *16:8 *199:134 0.000275231
22 *16:8 *203:66 0.000137187
*RES
1 *2285:Y *16:6 13.8 
2 *16:6 *16:8 48.6964 
3 *16:8 *2373:D 29.8357 
*END

*D_NET *17 0.0210177
*CONN
*I *607:DIODE I *D sky130_fd_sc_hd__diode_2
*I *2374:D I *D sky130_fd_sc_hd__dfrtp_4
*I *2286:X O *D sky130_fd_sc_hd__xor2_2
*CAP
1 *607:DIODE 0.000110462
2 *2374:D 0.000131402
3 *2286:X 0
4 *17:28 0.00134398
5 *17:22 0.00283764
6 *17:10 0.00365229
7 *17:6 0.00191676
8 *607:DIODE *214:22 0.000135028
9 *2374:D *132:18 1.80622e-05
10 *2374:D *143:28 2.59355e-05
11 *2374:D *156:91 0.000192867
12 *2374:D *178:10 6.93626e-06
13 *2374:D *178:34 5.49995e-05
14 *2374:D *178:48 7.28272e-06
15 *2374:D *205:58 0.000283683
16 *17:10 *116:78 0
17 *17:10 *140:14 0.000558276
18 *17:10 *141:40 0.000101915
19 *17:10 *147:26 0
20 *17:10 *148:12 0
21 *17:10 *152:44 0.00106771
22 *17:10 *153:61 0.0011334
23 *17:10 *187:74 0
24 *17:10 *201:16 0.000524955
25 *17:22 *2290:A 0.000221058
26 *17:22 *2371:D 3.51056e-05
27 *17:22 *18:8 5.23735e-05
28 *17:22 *147:26 0
29 *17:22 *167:38 0.000141579
30 *17:22 *167:44 0.000109827
31 *17:22 *174:18 0.000311305
32 *17:22 *174:24 0.000326295
33 *17:22 *179:146 0.00034694
34 *17:22 *201:16 0.000115649
35 *17:28 *265:DIODE 0.000136727
36 *17:28 *266:DIODE 5.33005e-05
37 *17:28 *2273:A1 7.74068e-05
38 *17:28 *20:12 0.00240511
39 *17:28 *39:24 0.000676694
40 *17:28 *132:18 4.55219e-05
41 *17:28 *174:16 9.58632e-05
42 *17:28 *174:18 0.000721718
43 *17:28 *189:22 0.000881572
44 *17:28 *205:58 0.000160074
*RES
1 *2286:X *17:6 13.8 
2 *17:6 *17:10 49.0625 
3 *17:10 *17:22 33.9911 
4 *17:22 *17:28 38.0893 
5 *17:28 *2374:D 18.1036 
6 *17:28 *607:DIODE 15.1571 
*END

*D_NET *18 0.0131747
*CONN
*I *2375:D I *D sky130_fd_sc_hd__dfrtp_4
*I *609:DIODE I *D sky130_fd_sc_hd__diode_2
*I *2290:X O *D sky130_fd_sc_hd__buf_1
*CAP
1 *2375:D 0.000607242
2 *609:DIODE 0
3 *2290:X 7.14046e-05
4 *18:14 0.000796027
5 *18:10 0.00412664
6 *18:8 0.00400926
7 *2375:D *2348:D 6.05161e-06
8 *2375:D *2375:RESET_B 0.000113501
9 *2375:D *181:8 2.89114e-05
10 *18:10 *362:DIODE 6.53562e-05
11 *18:10 *2184:C 0.000149911
12 *18:10 *2211:A 4.79773e-05
13 *18:10 *2211:D 4.51736e-05
14 *18:10 *2297:C 7.80059e-05
15 *18:10 *2355:D 6.14514e-05
16 *18:10 *74:10 0.00141144
17 *18:10 *115:14 0
18 *18:10 *116:72 0
19 *18:10 *176:82 0
20 *18:10 *176:102 0
21 *18:10 *181:10 0
22 *18:10 *184:36 0
23 *18:10 *185:114 0.000186249
24 *18:10 *188:14 0
25 *18:10 *193:72 0
26 *18:10 *213:58 0.00114927
27 *18:10 *214:38 0.000147869
28 *18:10 *214:53 2.06292e-05
29 *17:22 *18:8 5.23735e-05
*RES
1 *2290:X *18:8 14.7464 
2 *18:8 *18:10 81.1786 
3 *18:10 *18:14 6.67857 
4 *18:14 *609:DIODE 9.3 
5 *18:14 *2375:D 20.3179 
*END

*D_NET *19 0.0179333
*CONN
*I *2376:D I *D sky130_fd_sc_hd__dfrtp_4
*I *2291:Y O *D sky130_fd_sc_hd__xnor2_1
*CAP
1 *2376:D 0.00167394
2 *2291:Y 0.00139212
3 *19:12 0.0026551
4 *19:8 0.00237329
5 *2376:D *2200:B 0.00147479
6 *2376:D *2376:CLK 8.2607e-05
7 *2376:D *2376:RESET_B 0.00124701
8 *2376:D *130:46 0.000180202
9 *2376:D *178:52 9.58181e-05
10 *2376:D *221:14 8.19856e-05
11 *19:8 *2291:A 0.000223558
12 *19:8 *182:136 0.00174963
13 *19:12 *234:DIODE 0.000115453
14 *19:12 *56:18 0.000426578
15 *19:12 *93:10 0.000149023
16 *19:12 *149:32 0.00039087
17 *19:12 *191:52 0.000595881
18 *19:12 *193:22 1.90936e-05
19 *19:12 *197:66 0.00020203
20 *19:12 *198:68 0.00163963
21 *19:12 *210:12 0.00116471
*RES
1 *2291:Y *19:8 32.8179 
2 *19:8 *19:12 38.625 
3 *19:12 *2376:D 37.8357 
*END

*D_NET *20 0.00662537
*CONN
*I *2341:D I *D sky130_fd_sc_hd__dfrtp_4
*I *2191:X O *D sky130_fd_sc_hd__clkbuf_1
*CAP
1 *2341:D 0
2 *2191:X 0.00190489
3 *20:12 0.00190489
4 *20:12 *2193:A 5.31101e-05
5 *20:12 *134:65 3.23658e-05
6 *20:12 *166:64 0.000198023
7 *20:12 *166:66 1.95405e-05
8 *20:12 *190:44 0.000107449
9 *17:28 *20:12 0.00240511
*RES
1 *2191:X *20:12 45.6036 
2 *20:12 *2341:D 9.3 
*END

*D_NET *21 0.0210644
*CONN
*I *2351:D I *D sky130_fd_sc_hd__dfrtp_4
*I *565:DIODE I *D sky130_fd_sc_hd__diode_2
*I *2224:X O *D sky130_fd_sc_hd__xor2_2
*CAP
1 *2351:D 0
2 *565:DIODE 8.27544e-05
3 *2224:X 0.00117656
4 *21:36 0.00058291
5 *21:24 0.00300605
6 *21:22 0.00368245
7 *565:DIODE *59:16 0.000111914
8 *565:DIODE *172:188 0.000110029
9 *21:22 *273:DIODE 5.50052e-05
10 *21:22 *2197:B 8.48937e-05
11 *21:22 *2197:C 3.98399e-05
12 *21:22 *2197:D 7.69499e-05
13 *21:22 *2224:B 0.000145106
14 *21:22 *2265:A 1.98839e-05
15 *21:22 *2265:B 0.000115064
16 *21:22 *36:26 0.00022887
17 *21:22 *71:22 2.15121e-05
18 *21:22 *119:44 0.000357738
19 *21:24 *2346:RESET_B 0.000283698
20 *21:24 *2353:RESET_B 0.000508597
21 *21:24 *55:14 0
22 *21:24 *94:20 0.000745194
23 *21:24 *94:26 0.00209215
24 *21:24 *94:41 0
25 *21:24 *106:51 0.000122877
26 *21:24 *138:26 0.000406121
27 *21:24 *157:29 0
28 *21:24 *159:18 0.00144002
29 *21:24 *159:24 0.000930589
30 *21:24 *171:86 0.000309894
31 *21:24 *171:92 0.000118985
32 *21:24 *172:206 9.26068e-05
33 *21:24 *172:208 6.85383e-05
34 *21:24 *172:214 0.000544442
35 *21:24 *176:17 0.000173804
36 *21:24 *176:52 0.000467239
37 *21:24 *199:142 0.000245349
38 *21:24 *202:24 0.000812214
39 *21:24 *212:12 0.00048977
40 *21:24 *212:20 0.000263406
41 *21:36 *564:DIODE 3.42426e-05
42 *21:36 *59:16 7.44262e-05
43 *21:36 *94:16 0
44 *21:36 *94:20 0
45 *21:36 *95:18 0.000232017
46 *21:36 *172:188 0.000131305
47 *21:36 *184:20 8.68309e-05
48 *21:36 *201:71 7.49104e-05
49 *2379:A *21:24 0.000417677
*RES
1 *2224:X *21:22 42.425 
2 *21:22 *21:24 80.2679 
3 *21:24 *21:36 22.6607 
4 *21:36 *565:DIODE 11.4786 
5 *21:36 *2351:D 9.3 
*END

*D_NET *22 0.0025968
*CONN
*I *2352:D I *D sky130_fd_sc_hd__dfrtp_4
*I *2228:X O *D sky130_fd_sc_hd__clkbuf_1
*CAP
1 *2352:D 0.000597288
2 *2228:X 0.000597288
3 *2352:D *566:DIODE 9.46929e-05
4 *2352:D *2287:B 4.48647e-05
5 *2352:D *76:8 1.39841e-05
6 *2352:D *151:121 0.000228514
7 *2352:D *163:14 0.000143967
8 *2352:D *180:156 0.000361435
9 *2352:D *204:28 0.000514767
*RES
1 *2228:X *2352:D 42.3321 
*END

*D_NET *23 0.00941486
*CONN
*I *2353:D I *D sky130_fd_sc_hd__dfrtp_4
*I *2229:Y O *D sky130_fd_sc_hd__xnor2_1
*CAP
1 *2353:D 0.000761593
2 *2229:Y 0.00203595
3 *23:16 0.00279754
4 *2353:D *2281:B 1.84765e-05
5 *2353:D *2299:A1 0.000213669
6 *2353:D *2353:CLK 0.000240224
7 *2353:D *2368:D 0
8 *2353:D *44:10 0.000930478
9 *2353:D *119:24 0.000343582
10 *2353:D *186:98 3.15694e-05
11 *2353:D *207:37 0
12 *2353:D *208:14 0.000380123
13 *23:16 *474:DIODE 0.000181796
14 *23:16 *41:24 7.6644e-05
15 *23:16 *47:22 0.00108541
16 *23:16 *57:12 9.41642e-05
17 *23:16 *119:8 0.000135028
18 *23:16 *186:100 7.83659e-05
19 *23:16 *186:113 1.02504e-05
*RES
1 *2229:Y *23:16 48.7286 
2 *23:16 *2353:D 32.2464 
*END

*D_NET *24 0.0036953
*CONN
*I *2354:D I *D sky130_fd_sc_hd__dfrtp_2
*I *2233:X O *D sky130_fd_sc_hd__o21ba_1
*CAP
1 *2354:D 0.00109393
2 *2233:X 0.00109393
3 *2354:D *2354:CLK 0.00014183
4 *2354:D *2354:RESET_B 6.87574e-05
5 *2354:D *26:38 0.000241492
6 *2354:D *108:26 6.04075e-05
7 *2354:D *128:20 0
8 *2354:D *186:98 0.000472727
9 *2354:D *200:14 0.000522214
*RES
1 *2233:X *2354:D 49.4393 
*END

*D_NET *25 0.000498656
*CONN
*I *2355:D I *D sky130_fd_sc_hd__dfrtp_2
*I *2235:X O *D sky130_fd_sc_hd__o211a_1
*CAP
1 *2355:D 0.000175474
2 *2235:X 0.000175474
3 *2355:D *2211:C 2.57552e-06
4 *2355:D *2211:D 3.32737e-05
5 *2355:D *176:82 3.67279e-06
6 *2355:D *176:102 3.42969e-05
7 *2355:D *188:102 1.24368e-05
8 *18:10 *2355:D 6.14514e-05
*RES
1 *2235:X *2355:D 30.6 
*END

*D_NET *26 0.0255346
*CONN
*I *2356:D I *D sky130_fd_sc_hd__dfrtp_4
*I *573:DIODE I *D sky130_fd_sc_hd__diode_2
*I *2236:Y O *D sky130_fd_sc_hd__xnor2_2
*CAP
1 *2356:D 0.000204747
2 *573:DIODE 7.70325e-05
3 *2236:Y 2.90299e-05
4 *26:38 0.00243851
5 *26:32 0.00261141
6 *26:18 0.00303346
7 *26:10 0.00401839
8 *26:8 0.00146864
9 *573:DIODE *185:30 9.41642e-05
10 *2356:D *2356:CLK 8.55871e-05
11 *2356:D *2356:RESET_B 0.000178847
12 *2356:D *109:22 0.000214349
13 *2356:D *189:12 5.88126e-05
14 *2356:D *189:16 0.00022117
15 *26:8 *2236:A 0.000185403
16 *26:8 *2236:B 0.000143633
17 *26:8 *122:35 2.12733e-05
18 *26:10 *2236:B 0
19 *26:10 *2361:D 0.00010326
20 *26:10 *2367:CLK 8.08022e-05
21 *26:10 *100:10 0
22 *26:10 *127:20 0.000144274
23 *26:10 *131:18 0
24 *26:10 *134:224 0.000408221
25 *26:10 *147:10 0.000480168
26 *26:10 *147:18 2.04626e-05
27 *26:10 *158:24 0.00115933
28 *26:10 *179:170 3.55407e-05
29 *26:10 *179:194 2.14474e-05
30 *26:10 *181:46 0.000146474
31 *26:10 *187:34 0.00241558
32 *26:10 *192:24 0.000618565
33 *26:10 *193:10 0
34 *26:18 *105:24 0.000373615
35 *26:18 *106:8 9.71197e-05
36 *26:18 *144:93 0.000859461
37 *26:18 *167:24 0.000717873
38 *26:18 *197:24 4.85033e-05
39 *26:32 *119:24 7.83587e-05
40 *26:32 *144:93 0.000464471
41 *26:32 *190:16 2.41972e-05
42 *26:32 *208:32 7.6644e-05
43 *26:38 *109:22 7.83659e-05
44 *26:38 *186:98 0.00167929
45 *26:38 *189:16 7.6644e-05
46 *2354:D *26:38 0.000241492
*RES
1 *2236:Y *26:8 15.5679 
2 *26:8 *26:10 48.3929 
3 *26:10 *26:18 46.25 
4 *26:18 *26:32 24.4107 
5 *26:32 *26:38 32.7679 
6 *26:38 *573:DIODE 14.7464 
7 *26:38 *2356:D 19.6571 
*END

*D_NET *27 0.00933212
*CONN
*I *2357:D I *D sky130_fd_sc_hd__dfrtp_4
*I *2240:X O *D sky130_fd_sc_hd__xor2_1
*CAP
1 *2357:D 0
2 *2240:X 0.000640542
3 *27:14 0.00110306
4 *27:8 0.0017436
5 *27:8 *143:12 0.000505662
6 *27:8 *143:20 0.000355555
7 *27:14 *2357:RESET_B 0.00125566
8 *27:14 *2359:RESET_B 0.000175892
9 *27:14 *75:32 0.000509758
10 *27:14 *99:27 0.000573625
11 *27:14 *122:35 0.00015185
12 *27:14 *149:16 0.0018157
13 *27:14 *172:62 9.18242e-05
14 *27:14 *174:156 0.000135028
15 *27:14 *174:165 6.42095e-05
16 *27:14 *201:65 0.000210164
*RES
1 *2240:X *27:8 26.6571 
2 *27:8 *27:14 40.75 
3 *27:14 *2357:D 9.3 
*END

*D_NET *28 0.0324467
*CONN
*I *577:DIODE I *D sky130_fd_sc_hd__diode_2
*I *2358:D I *D sky130_fd_sc_hd__dfrtp_4
*I *2243:Y O *D sky130_fd_sc_hd__nor2_2
*CAP
1 *577:DIODE 0
2 *2358:D 0.00037481
3 *2243:Y 0.00815143
4 *28:28 0.00110544
5 *28:20 0.00888205
6 *2358:D *112:12 0.000353079
7 *2358:D *185:114 4.29471e-05
8 *2358:D *193:72 2.26973e-05
9 *28:20 *2366:RESET_B 0.000637713
10 *28:20 *31:14 0.0057037
11 *28:20 *56:16 0.000197861
12 *28:20 *66:24 0.00173694
13 *28:20 *67:16 0
14 *28:20 *67:26 0.000250505
15 *28:20 *109:22 0.000698574
16 *28:20 *109:28 0.000313721
17 *28:20 *110:10 0.00011089
18 *28:20 *126:12 0.000471273
19 *28:20 *136:50 0.000139652
20 *28:20 *170:34 0
21 *28:20 *170:92 0.000864266
22 *28:20 *175:219 0.000108549
23 *28:20 *185:30 0.000439453
24 *28:20 *186:117 0.000149194
25 *28:20 *189:16 0.000320499
26 *28:20 *199:74 0.000122341
27 *28:28 *2211:C 1.2294e-05
28 *28:28 *2235:B1 9.93108e-05
29 *28:28 *112:12 0.00022459
30 *28:28 *131:44 0.000684844
31 *28:28 *169:22 0
32 *28:28 *169:202 0
33 *28:28 *181:10 0.00012847
34 *28:28 *212:104 9.96487e-05
*RES
1 *2243:Y *28:20 49.8698 
2 *28:20 *28:28 23.7225 
3 *28:28 *2358:D 23.925 
4 *28:28 *577:DIODE 9.3 
*END

*D_NET *29 0.0108351
*CONN
*I *2359:D I *D sky130_fd_sc_hd__dfrtp_4
*I *2247:X O *D sky130_fd_sc_hd__buf_1
*CAP
1 *2359:D 0.000250259
2 *2247:X 0.000719435
3 *29:12 0.00228276
4 *29:8 0.00275194
5 *2359:D *2234:A 9.41642e-05
6 *2359:D *2269:A 5.33005e-05
7 *2359:D *2269:B 7.20217e-06
8 *2359:D *2359:CLK 8.70594e-05
9 *2359:D *116:48 6.45847e-06
10 *2359:D *131:16 0.00016656
11 *2359:D *131:42 1.38323e-05
12 *2359:D *153:55 0.000851646
13 *2359:D *201:48 6.59138e-05
14 *29:8 *125:16 0.00103303
15 *29:12 *131:44 0
16 *29:12 *169:22 0
17 *29:12 *184:54 0.000854627
18 *29:12 *186:30 0.000207242
19 *29:12 *195:42 0
20 *29:12 *195:50 0.000215611
21 *29:12 *213:118 0.00117405
*RES
1 *2247:X *29:8 23.7821 
2 *29:8 *29:12 47.125 
3 *29:12 *2359:D 17.6393 
*END

*D_NET *30 0.0164965
*CONN
*I *580:DIODE I *D sky130_fd_sc_hd__diode_2
*I *2360:D I *D sky130_fd_sc_hd__dfrtp_4
*I *2252:X O *D sky130_fd_sc_hd__buf_1
*CAP
1 *580:DIODE 3.92928e-05
2 *2360:D 9.97294e-05
3 *2252:X 0.00600873
4 *30:18 0.000708653
5 *30:16 0.00657836
6 *580:DIODE *183:67 5.50052e-05
7 *2360:D *2360:CLK 6.67311e-05
8 *30:16 *2364:D 0.000145222
9 *30:16 *2373:RESET_B 0.000361705
10 *30:16 *42:24 1.68846e-05
11 *30:16 *71:16 0
12 *30:16 *97:24 0
13 *30:16 *136:50 0
14 *30:16 *143:28 2.19683e-05
15 *30:16 *163:60 0.000186352
16 *30:16 *171:120 6.05161e-06
17 *30:16 *171:135 8.74791e-05
18 *30:16 *203:50 0.000527044
19 *30:16 *218:34 0.000213369
20 *30:18 *254:DIODE 0.000103974
21 *30:18 *2290:A 0.000204699
22 *30:18 *2360:CLK 4.27842e-06
23 *30:18 *74:10 0.000463762
24 *30:18 *90:18 0.000137804
25 *30:18 *174:28 0.000459407
26 *2379:A *30:16 0
*RES
1 *2252:X *30:16 43.7595 
2 *30:16 *30:18 15.1518 
3 *30:18 *2360:D 15.9786 
4 *30:18 *580:DIODE 14.3357 
*END

*D_NET *31 0.03038
*CONN
*I *2342:D I *D sky130_fd_sc_hd__dfrtp_4
*I *550:DIODE I *D sky130_fd_sc_hd__diode_2
*I *2195:X O *D sky130_fd_sc_hd__buf_1
*CAP
1 *2342:D 4.17062e-05
2 *550:DIODE 0.000149411
3 *2195:X 0.00469809
4 *31:24 0.00368655
5 *31:14 0.00819352
6 *550:DIODE *2362:CLK 7.83587e-05
7 *550:DIODE *175:206 5.41794e-05
8 *550:DIODE *175:219 3.22325e-05
9 *550:DIODE *211:10 0.000145406
10 *550:DIODE *211:38 5.39166e-06
11 *2342:D *2342:CLK 5.33005e-05
12 *2342:D *2342:RESET_B 7.17235e-05
13 *2342:D *194:18 0.000125024
14 *31:14 *2248:B_N 0.000199045
15 *31:14 *2358:RESET_B 0.0011915
16 *31:14 *67:16 0
17 *31:14 *115:112 2.6949e-05
18 *31:14 *158:22 0.00100853
19 *31:14 *191:14 0.000491805
20 *31:14 *193:50 6.38844e-06
21 *31:14 *193:72 0
22 *31:14 *214:68 0
23 *31:24 *2341:RESET_B 0
24 *31:24 *34:8 0.000506738
25 *31:24 *66:24 0.00202848
26 *31:24 *84:12 0.000121501
27 *31:24 *127:26 0.000163694
28 *31:24 *175:219 1.10632e-05
29 *31:24 *179:10 0.00053958
30 *31:24 *179:30 0.000194161
31 *31:24 *199:112 0.000547184
32 *31:24 *203:56 0.000285711
33 *31:24 *211:10 1.90936e-05
34 *2300:A *31:14 0
35 *28:20 *31:14 0.0057037
*RES
1 *2195:X *31:14 48.1827 
2 *31:14 *31:24 16.6582 
3 *31:24 *550:DIODE 16.6929 
4 *31:24 *2342:D 15.5679 
*END

*D_NET *32 0.00308005
*CONN
*I *2361:D I *D sky130_fd_sc_hd__dfrtp_4
*I *2255:Y O *D sky130_fd_sc_hd__nor2_1
*CAP
1 *2361:D 0.00042969
2 *2255:Y 0.00042969
3 *2361:D *2255:B 6.05161e-06
4 *2361:D *127:20 0.000202804
5 *2361:D *147:10 0.00062809
6 *2361:D *179:194 0.00127441
7 *2361:D *192:24 6.05161e-06
8 *26:10 *2361:D 0.00010326
*RES
1 *2255:Y *2361:D 44.35 
*END

*D_NET *33 0.0158852
*CONN
*I *2362:D I *D sky130_fd_sc_hd__dfrtp_4
*I *584:DIODE I *D sky130_fd_sc_hd__diode_2
*I *2256:X O *D sky130_fd_sc_hd__xor2_1
*CAP
1 *2362:D 0.000688224
2 *584:DIODE 0
3 *2256:X 9.78902e-05
4 *33:26 0.00186938
5 *33:16 0.00272219
6 *33:12 0.00163893
7 *2362:D *109:22 0.000225307
8 *2362:D *189:16 0.000225307
9 *2362:D *203:50 4.38244e-05
10 *33:12 *2256:B 5.33005e-05
11 *33:12 *106:14 0.000218037
12 *33:12 *193:10 0.000219745
13 *33:16 *2256:A 2.79421e-05
14 *33:16 *122:37 0.000304387
15 *33:16 *122:87 0.00184332
16 *33:16 *196:16 0.000997988
17 *33:16 *196:18 0.000307806
18 *33:26 *331:DIODE 4.53889e-05
19 *33:26 *389:DIODE 0.000185118
20 *33:26 *2222:B 0.000175892
21 *33:26 *2245:C 8.93791e-05
22 *33:26 *41:18 0.000175713
23 *33:26 *53:12 0.000141162
24 *33:26 *75:38 0.000897277
25 *33:26 *122:87 2.37369e-05
26 *33:26 *124:16 0.000350823
27 *33:26 *134:75 2.18985e-05
28 *33:26 *138:26 0.000110316
29 *33:26 *151:69 0.000306068
30 *33:26 *196:16 0.00148083
31 *33:26 *199:134 6.66287e-06
32 *33:26 *203:50 1.07719e-05
33 *33:26 *214:10 0.000380596
*RES
1 *2256:X *33:12 21.6929 
2 *33:12 *33:16 38.2321 
3 *33:16 *33:26 43.1964 
4 *33:26 *584:DIODE 9.3 
5 *33:26 *2362:D 29.9071 
*END

*D_NET *34 0.0208457
*CONN
*I *2363:D I *D sky130_fd_sc_hd__dfrtp_4
*I *587:DIODE I *D sky130_fd_sc_hd__diode_2
*I *2260:X O *D sky130_fd_sc_hd__buf_1
*CAP
1 *2363:D 0.000390941
2 *587:DIODE 0
3 *2260:X 0
4 *34:12 0.00186406
5 *34:8 0.00379773
6 *34:6 0.00232461
7 *2363:D *2363:CLK 8.07313e-05
8 *2363:D *197:18 0.000106189
9 *34:8 *599:DIODE 0
10 *34:8 *2350:RESET_B 0
11 *34:8 *54:12 0
12 *34:8 *57:12 0.000265392
13 *34:8 *66:24 0.000358947
14 *34:8 *106:68 0.000148465
15 *34:8 *171:135 0.000882638
16 *34:8 *179:10 0.0037631
17 *34:8 *179:82 0
18 *34:8 *199:112 0.000260279
19 *34:8 *203:50 0
20 *34:8 *203:56 0.00158
21 *34:12 *276:DIODE 0.000276211
22 *34:12 *2305:A 0.000276211
23 *34:12 *170:44 0.00342143
24 *34:12 *197:18 0.000370947
25 *34:12 *205:14 4.88637e-05
26 *34:12 *205:22 0.000122159
27 *31:24 *34:8 0.000506738
*RES
1 *2260:X *34:6 13.8 
2 *34:6 *34:8 67.2143 
3 *34:8 *34:12 46.1071 
4 *34:12 *587:DIODE 9.3 
5 *34:12 *2363:D 15.0054 
*END

*D_NET *35 0.0197606
*CONN
*I *2364:D I *D sky130_fd_sc_hd__dfrtp_2
*I *590:DIODE I *D sky130_fd_sc_hd__diode_2
*I *2261:Y O *D sky130_fd_sc_hd__xnor2_1
*CAP
1 *2364:D 0.000204669
2 *590:DIODE 0
3 *2261:Y 0.0021206
4 *35:30 0.000545352
5 *35:22 0.00158165
6 *35:14 0.00336157
7 *2364:D *41:24 8.57292e-05
8 *2364:D *143:28 0.000481725
9 *2364:D *170:92 5.38074e-05
10 *2364:D *171:135 4.17702e-05
11 *35:14 *2261:B 5.5033e-05
12 *35:14 *2367:RESET_B 0.00140282
13 *35:14 *147:26 0
14 *35:14 *167:48 0
15 *35:14 *219:16 0.000513633
16 *35:22 *143:20 0.00318624
17 *35:22 *178:16 0.000530006
18 *35:22 *190:44 0.000175892
19 *35:22 *190:46 0.00268067
20 *35:22 *195:72 9.76123e-05
21 *35:22 *219:26 0.000120983
22 *35:30 *53:12 0.000422704
23 *35:30 *143:28 0.000816077
24 *35:30 *171:116 5.39199e-05
25 *35:30 *171:120 0.000521326
26 *35:30 *171:135 0.000141036
27 *35:30 *214:10 0.000420517
28 *30:16 *2364:D 0.000145222
*RES
1 *2261:Y *35:14 46.9786 
2 *35:14 *35:22 48.6607 
3 *35:22 *35:30 22.5179 
4 *35:30 *590:DIODE 9.3 
5 *35:30 *2364:D 25.1929 
*END

*D_NET *36 0.0201167
*CONN
*I *2365:D I *D sky130_fd_sc_hd__dfrtp_4
*I *593:DIODE I *D sky130_fd_sc_hd__diode_2
*I *2265:X O *D sky130_fd_sc_hd__xor2_1
*CAP
1 *2365:D 0.000160631
2 *593:DIODE 0
3 *2265:X 0.00794228
4 *36:30 0.000183545
5 *36:26 0.00796519
6 *2365:D *2282:B 8.2958e-06
7 *2365:D *103:34 9.40149e-05
8 *2365:D *161:10 0.000137983
9 *2365:D *177:126 6.42095e-05
10 *2365:D *177:136 6.05161e-06
11 *2365:D *179:54 0.000109538
12 *36:26 *2265:B 0.000442506
13 *36:26 *40:18 0
14 *36:26 *42:24 0.000569265
15 *36:26 *51:22 1.17516e-05
16 *36:26 *103:14 0.000506706
17 *36:26 *107:10 0
18 *36:26 *136:50 0
19 *36:26 *141:68 1.36734e-05
20 *36:26 *151:96 8.27009e-05
21 *36:26 *164:18 0.00018265
22 *36:26 *178:48 0.000125685
23 *36:26 *178:74 0.000153984
24 *36:26 *181:166 0.000107263
25 *36:26 *182:113 0.000133769
26 *36:26 *182:128 0.000124022
27 *36:26 *192:92 0.000170809
28 *36:30 *2282:B 1.76135e-05
29 *36:30 *103:34 2.01525e-05
30 *36:30 *155:14 3.4323e-06
31 *16:8 *36:26 0.000550106
32 *21:22 *36:26 0.00022887
*RES
1 *2265:X *36:26 47.5743 
2 *36:26 *36:30 3.99036 
3 *36:30 *593:DIODE 13.8 
4 *36:30 *2365:D 17.7643 
*END

*D_NET *37 0.0186138
*CONN
*I *2366:D I *D sky130_fd_sc_hd__dfrtp_2
*I *595:DIODE I *D sky130_fd_sc_hd__diode_2
*I *2268:Y O *D sky130_fd_sc_hd__nor2_1
*CAP
1 *2366:D 0.000255619
2 *595:DIODE 0
3 *2268:Y 0.00056432
4 *37:16 0.00116666
5 *37:12 0.00381545
6 *37:10 0.00346872
7 *2366:D *103:18 0.000209457
8 *2366:D *106:68 5.57647e-05
9 *2366:D *106:88 1.48252e-05
10 *2366:D *179:30 0.000219758
11 *37:10 *114:10 0.000616721
12 *37:12 *538:DIODE 0.000269378
13 *37:12 *2202:A 8.48826e-05
14 *37:12 *2202:B 5.33005e-05
15 *37:12 *46:8 0.000680925
16 *37:12 *63:12 0.00140151
17 *37:12 *106:62 0.00177982
18 *37:12 *152:36 0.00250809
19 *37:12 *200:48 8.43535e-06
20 *37:12 *209:43 0.00032965
21 *37:16 *103:18 0.00098549
22 *37:16 *106:62 0.000124988
*RES
1 *2268:Y *37:10 32.6929 
2 *37:10 *37:12 61.7321 
3 *37:12 *37:16 12.4643 
4 *37:16 *595:DIODE 9.3 
5 *37:16 *2366:D 23.3357 
*END

*D_NET *38 0.00682464
*CONN
*I *2367:D I *D sky130_fd_sc_hd__dfrtp_2
*I *2269:X O *D sky130_fd_sc_hd__xor2_1
*CAP
1 *2367:D 0.000538158
2 *2269:X 0.00116812
3 *38:10 0.00170627
4 *2367:D *2367:CLK 9.3111e-05
5 *2367:D *2367:RESET_B 0.000509018
6 *2367:D *174:72 0.000545423
7 *2367:D *219:16 0.000647979
8 *38:10 *2234:B 0.000100831
9 *38:10 *116:48 5.37741e-06
10 *38:10 *186:30 5.01473e-05
11 *38:10 *186:36 0
12 *38:10 *188:30 0.000911188
13 *38:10 *188:34 9.80936e-05
14 *38:10 *196:44 0.00045092
*RES
1 *2269:X *38:10 42.1036 
2 *38:10 *2367:D 25.0321 
*END

*D_NET *39 0.0104396
*CONN
*I *2368:D I *D sky130_fd_sc_hd__dfrtp_1
*I *2273:X O *D sky130_fd_sc_hd__o21ba_1
*CAP
1 *2368:D 0.00101762
2 *2273:X 0.000855263
3 *39:24 0.00187289
4 *2368:D *2223:B 7.27331e-05
5 *2368:D *2249:D 0.000353113
6 *2368:D *2281:B 0.000287127
7 *2368:D *2353:CLK 4.01284e-05
8 *2368:D *89:12 0.00133284
9 *2368:D *107:10 0.000609612
10 *2368:D *141:58 8.06081e-05
11 *2368:D *173:14 2.06178e-05
12 *2368:D *173:52 0.000215502
13 *2368:D *199:92 1.83136e-05
14 *2368:D *207:37 0.000556407
15 *39:24 *313:DIODE 3.25078e-05
16 *39:24 *2193:B 0.000109272
17 *39:24 *2341:CLK 0.000237913
18 *39:24 *2381:A 0.000125335
19 *39:24 *80:12 4.46186e-06
20 *39:24 *113:18 0.000107125
21 *39:24 *175:33 0.000252076
22 *39:24 *189:22 0.000839236
23 *39:24 *202:62 0.000221359
24 *39:24 *213:182 0.000500802
25 *2353:D *2368:D 0
26 *17:28 *39:24 0.000676694
*RES
1 *2273:X *39:24 46.6036 
2 *39:24 *2368:D 44.2643 
*END

*D_NET *40 0.0179749
*CONN
*I *2369:D I *D sky130_fd_sc_hd__dfrtp_4
*I *2276:Y O *D sky130_fd_sc_hd__nor2_1
*CAP
1 *2369:D 0
2 *2276:Y 0.00699409
3 *40:18 0.00699409
4 *40:18 *2178:A 0.00026964
5 *40:18 *2276:B 9.84673e-05
6 *40:18 *2350:CLK 0.00014225
7 *40:18 *2360:RESET_B 7.35798e-05
8 *40:18 *2363:RESET_B 0.000310612
9 *40:18 *51:22 0.000160191
10 *40:18 *90:18 0.000401842
11 *40:18 *170:34 2.11419e-05
12 *40:18 *174:54 0.000116161
13 *40:18 *179:106 0.00134467
14 *40:18 *183:67 0.000204274
15 *40:18 *189:70 5.49995e-05
16 *40:18 *194:73 0.000237229
17 *40:18 *194:75 0.000274162
18 *40:18 *205:28 0.000277453
19 *36:26 *40:18 0
*RES
1 *2276:Y *40:18 47.5969 
2 *40:18 *2369:D 13.8 
*END

*D_NET *41 0.0233391
*CONN
*I *2370:D I *D sky130_fd_sc_hd__dfrtp_4
*I *601:DIODE I *D sky130_fd_sc_hd__diode_2
*I *2278:X O *D sky130_fd_sc_hd__o21a_1
*CAP
1 *2370:D 0.00034957
2 *601:DIODE 0
3 *2278:X 0.0016172
4 *41:28 0.00148035
5 *41:24 0.00287804
6 *41:22 0.00222659
7 *41:18 0.00209652
8 *2370:D *177:170 0
9 *2370:D *204:8 0.00021932
10 *41:18 *331:DIODE 0.000125547
11 *41:18 *2364:RESET_B 8.93214e-05
12 *41:18 *75:38 6.8377e-06
13 *41:18 *122:87 0.000640151
14 *41:18 *151:92 0.000317149
15 *41:18 *169:108 0.000440238
16 *41:18 *169:125 4.17433e-05
17 *41:18 *190:88 0.00023348
18 *41:18 *213:12 5.49168e-05
19 *41:22 *2364:CLK 4.72185e-05
20 *41:22 *2364:RESET_B 1.52601e-05
21 *41:24 *47:12 0.00289756
22 *41:24 *65:12 0
23 *41:24 *65:18 0.000282279
24 *41:24 *66:24 0.000947361
25 *41:24 *110:10 0.0042866
26 *41:24 *170:92 0
27 *41:24 *179:10 0
28 *41:24 *186:100 2.04866e-05
29 *41:24 *186:113 2.26327e-05
30 *41:24 *200:72 0.000482498
31 *41:28 *65:12 0.000484208
32 *41:28 *110:10 0.000697912
33 *41:28 *177:170 0
34 *2364:D *41:24 8.57292e-05
35 *23:16 *41:24 7.6644e-05
36 *33:26 *41:18 0.000175713
*RES
1 *2278:X *41:18 47.0321 
2 *41:18 *41:22 9.96429 
3 *41:22 *41:24 63.875 
4 *41:24 *41:28 26.7679 
5 *41:28 *601:DIODE 13.8 
6 *41:28 *2370:D 19.1795 
*END

*D_NET *42 0.0179728
*CONN
*I *552:DIODE I *D sky130_fd_sc_hd__diode_2
*I *2343:D I *D sky130_fd_sc_hd__dfrtp_4
*I *2196:Y O *D sky130_fd_sc_hd__xnor2_1
*CAP
1 *552:DIODE 5.01523e-05
2 *2343:D 0
3 *2196:Y 0.00750961
4 *42:26 5.01523e-05
5 *42:24 0.00750961
6 *552:DIODE *2343:CLK 0.000143651
7 *552:DIODE *2343:RESET_B 0.000272147
8 *552:DIODE *220:36 6.06709e-05
9 *42:24 *2196:B 0
10 *42:24 *75:38 0.000183599
11 *42:24 *103:34 0
12 *42:24 *136:50 3.48509e-05
13 *42:24 *161:10 0.000282444
14 *42:24 *177:12 0.000146918
15 *42:24 *180:20 8.23597e-06
16 *42:24 *183:150 0.000452535
17 *42:24 *196:14 0.000169715
18 *42:24 *196:70 0.000112594
19 *42:24 *199:134 0.000150027
20 *42:24 *214:10 1.94945e-05
21 *42:24 *216:12 0.000230213
22 *30:16 *42:24 1.68846e-05
23 *36:26 *42:24 0.000569265
*RES
1 *2196:Y *42:24 48.7938 
2 *42:24 *42:26 4.5 
3 *42:26 *2343:D 9.3 
4 *42:26 *552:DIODE 11.8893 
*END

*D_NET *43 0.00246753
*CONN
*I *2371:D I *D sky130_fd_sc_hd__dfrtp_2
*I *2279:Y O *D sky130_fd_sc_hd__xnor2_1
*CAP
1 *2371:D 0.000634012
2 *2279:Y 0.000634012
3 *2371:D *2279:A 0.000140243
4 *2371:D *2279:B 6.30315e-05
5 *2371:D *2290:A 0.000221058
6 *2371:D *74:10 9.21315e-05
7 *2371:D *174:18 6.7224e-05
8 *2371:D *174:24 0.000348827
9 *2371:D *206:14 4.08637e-05
10 *2371:D *214:38 7.06575e-05
11 *2371:D *219:16 0.000120368
12 *17:22 *2371:D 3.51056e-05
*RES
1 *2279:Y *2371:D 40.9571 
*END

*D_NET *44 0.00692337
*CONN
*I *2372:D I *D sky130_fd_sc_hd__dfrtp_1
*I *2281:X O *D sky130_fd_sc_hd__xor2_1
*CAP
1 *2372:D 0.000114963
2 *2281:X 0.000900134
3 *44:10 0.0010151
4 *44:10 *2281:B 4.22135e-06
5 *44:10 *2351:RESET_B 4.46191e-05
6 *44:10 *134:173 0.00137575
7 *44:10 *163:60 0.000165074
8 *44:10 *186:98 5.52238e-05
9 *44:10 *207:37 0.00227374
10 *44:10 *208:14 4.40802e-05
11 *2353:D *44:10 0.000930478
*RES
1 *2281:X *44:10 45.7286 
2 *44:10 *2372:D 15.1571 
*END

*D_NET *45 0.00773842
*CONN
*I *2344:D I *D sky130_fd_sc_hd__dfrtp_2
*I *2201:X O *D sky130_fd_sc_hd__buf_1
*CAP
1 *2344:D 0.00112305
2 *2201:X 0.000134121
3 *45:12 0.00278556
4 *45:8 0.00179664
5 *2344:D *177:23 6.81704e-05
6 *45:8 *2201:A 8.62591e-05
7 *45:8 *108:30 5.49544e-05
8 *45:12 *2226:B 5.10822e-05
9 *45:12 *102:10 0
10 *45:12 *108:26 0.00163858
11 *45:12 *187:12 0
*RES
1 *2201:X *45:8 15.5679 
2 *45:8 *45:12 40.75 
3 *45:12 *2344:D 24.2107 
*END

*D_NET *46 0.00808113
*CONN
*I *2345:D I *D sky130_fd_sc_hd__dfrtp_4
*I *2202:X O *D sky130_fd_sc_hd__xor2_1
*CAP
1 *2345:D 0.000887814
2 *2202:X 0.000169507
3 *46:8 0.00105732
4 *2345:D *101:24 0.000280954
5 *2345:D *116:48 1.02504e-05
6 *2345:D *145:10 0.00019516
7 *2345:D *162:8 0.00179346
8 *2345:D *201:69 0.00223675
9 *2345:D *209:142 7.56271e-05
10 *46:8 *2202:A 0.000392268
11 *46:8 *209:43 0.000301094
12 *37:12 *46:8 0.000680925
*RES
1 *2202:X *46:8 20.4964 
2 *46:8 *2345:D 45.1929 
*END

*D_NET *47 0.0160905
*CONN
*I *2346:D I *D sky130_fd_sc_hd__dfrtp_4
*I *2205:Y O *D sky130_fd_sc_hd__nor2_1
*CAP
1 *2346:D 0
2 *2205:Y 0.000332335
3 *47:22 0.00109824
4 *47:12 0.00212989
5 *47:8 0.00136398
6 *47:8 *2205:B 0.000185403
7 *47:8 *109:46 0.00052536
8 *47:8 *110:14 4.79616e-05
9 *47:8 *189:22 0.000168048
10 *47:12 *52:10 0.000483724
11 *47:12 *65:18 8.37895e-05
12 *47:12 *66:24 0.000687984
13 *47:12 *179:10 0
14 *47:12 *186:100 0.000938877
15 *47:22 *474:DIODE 0.000178847
16 *47:22 *95:18 4.24111e-05
17 *47:22 *100:99 5.49889e-05
18 *47:22 *119:8 0.000724228
19 *47:22 *134:111 0.000165211
20 *47:22 *148:14 0.00282827
21 *47:22 *178:95 6.79915e-05
22 *23:16 *47:22 0.00108541
23 *41:24 *47:12 0.00289756
*RES
1 *2205:Y *47:8 22.55 
2 *47:8 *47:12 41.6607 
3 *47:12 *47:22 43.6429 
4 *47:22 *2346:D 9.3 
*END

*D_NET *48 0.0153929
*CONN
*I *2347:D I *D sky130_fd_sc_hd__dfrtp_4
*I *2209:X O *D sky130_fd_sc_hd__buf_1
*CAP
1 *2347:D 0.000593817
2 *2209:X 0.00147316
3 *48:12 0.00263122
4 *48:8 0.00351056
5 *2347:D *2347:CLK 7.32173e-05
6 *2347:D *113:18 0.000893777
7 *2347:D *200:14 0.000380634
8 *48:8 *2184:C 0.000177545
9 *48:8 *2242:A 5.52302e-05
10 *48:8 *2242:C 0.000221634
11 *48:8 *113:32 0.000425276
12 *48:8 *169:40 0.00010748
13 *48:8 *204:112 0.000136676
14 *48:12 *548:DIODE 8.17274e-05
15 *48:12 *2186:D_N 0.000178847
16 *48:12 *2339:A 0.000178847
17 *48:12 *73:18 0.00112059
18 *48:12 *169:40 8.96807e-05
19 *48:12 *174:173 0.000303362
20 *48:12 *190:118 0.000386121
21 *48:12 *196:10 0.00081708
22 *48:12 *211:38 0.00155644
*RES
1 *2209:X *48:8 27.925 
2 *48:8 *48:12 47.3393 
3 *48:12 *2347:D 27.5321 
*END

*D_NET *49 0.0106576
*CONN
*I *2348:D I *D sky130_fd_sc_hd__dfrtp_2
*I *2213:Y O *D sky130_fd_sc_hd__a21oi_1
*CAP
1 *2348:D 0.001856
2 *2213:Y 0.000785046
3 *49:8 0.00264105
4 *2348:D *608:DIODE 7.15962e-05
5 *2348:D *2310:A 2.27416e-05
6 *2348:D *2338:A 5.19842e-06
7 *2348:D *2348:CLK 7.4576e-05
8 *2348:D *2375:CLK 3.67142e-05
9 *2348:D *2375:RESET_B 0.000135432
10 *2348:D *106:134 0.000120505
11 *2348:D *178:97 0
12 *2348:D *212:10 9.01258e-06
13 *2348:D *213:118 0
14 *2348:D *213:144 0
15 *49:8 *2195:A 0.000274288
16 *49:8 *2213:B1 6.62241e-05
17 *49:8 *2246:B 0.00221767
18 *49:8 *116:84 0.000440836
19 *49:8 *118:22 0.00189463
20 *2375:D *2348:D 6.05161e-06
*RES
1 *2213:Y *49:8 43.4964 
2 *49:8 *2348:D 40.0009 
*END

*D_NET *50 0.00466475
*CONN
*I *2349:D I *D sky130_fd_sc_hd__dfrtp_4
*I *2215:Y O *D sky130_fd_sc_hd__a21oi_1
*CAP
1 *2349:D 0
2 *2215:Y 0.000817616
3 *50:12 0.000817616
4 *50:12 *2349:CLK 5.52238e-05
5 *50:12 *2349:RESET_B 3.18676e-05
6 *50:12 *51:22 0
7 *50:12 *89:12 0.00100999
8 *50:12 *107:10 0.00173394
9 *50:12 *124:16 0.000198487
*RES
1 *2215:Y *50:12 42.0321 
2 *50:12 *2349:D 9.3 
*END

*D_NET *51 0.0112305
*CONN
*I *2350:D I *D sky130_fd_sc_hd__dfrtp_4
*I *2223:Y O *D sky130_fd_sc_hd__nor2_1
*CAP
1 *2350:D 0
2 *2223:Y 0.000993581
3 *51:22 0.00182563
4 *51:12 0.00281921
5 *51:12 *2215:A1 0.000187391
6 *51:12 *89:12 6.71473e-05
7 *51:12 *95:24 0
8 *51:12 *119:24 8.17274e-05
9 *51:12 *119:26 1.24368e-05
10 *51:12 *124:16 6.63305e-05
11 *51:12 *159:16 9.41642e-05
12 *51:12 *172:62 0
13 *51:12 *174:173 0.000505764
14 *51:12 *190:16 0.000459272
15 *51:22 *276:DIODE 4.78281e-05
16 *51:22 *2219:D 1.41505e-05
17 *51:22 *2350:CLK 6.36119e-05
18 *51:22 *2380:A 2.30218e-05
19 *51:22 *95:24 0.000800033
20 *51:22 *107:10 0
21 *51:22 *124:16 0
22 *51:22 *164:18 0.000544163
23 *51:22 *171:86 0
24 *51:22 *171:92 0
25 *51:22 *179:106 0.000916089
26 *51:22 *205:28 0.000750018
27 *51:22 *210:101 0
28 *51:22 *212:32 0.000641196
29 *51:22 *219:24 0.00014576
30 *36:26 *51:22 1.17516e-05
31 *40:18 *51:22 0.000160191
32 *50:12 *51:22 0
*RES
1 *2223:Y *51:12 33.0946 
2 *51:12 *51:22 47.9018 
3 *51:22 *2350:D 9.3 
*END

*D_NET *52 0.0126081
*CONN
*I *2341:RESET_B I *D sky130_fd_sc_hd__dfrtp_4
*I *2302:Y O *D sky130_fd_sc_hd__inv_2
*CAP
1 *2341:RESET_B 0.00130771
2 *2302:Y 0.000192959
3 *52:10 0.00286639
4 *52:8 0.00175164
5 *2341:RESET_B *2245:A 7.622e-05
6 *2341:RESET_B *2245:C 0.000104719
7 *2341:RESET_B *75:32 2.40716e-05
8 *2341:RESET_B *138:26 0
9 *2341:RESET_B *183:12 1.94945e-05
10 *2341:RESET_B *218:50 0.000160762
11 *52:8 *128:12 0.000265453
12 *52:10 *65:18 0.00253629
13 *52:10 *66:24 0.000816177
14 *52:10 *177:31 0.000176234
15 *52:10 *179:10 0.00131204
16 *52:10 *179:30 0.000381804
17 *52:10 *179:54 0.000132452
18 *31:24 *2341:RESET_B 0
19 *47:12 *52:10 0.000483724
*RES
1 *2302:Y *52:8 16.3893 
2 *52:8 *52:10 50.6696 
3 *52:10 *2341:RESET_B 15.9219 
*END

*D_NET *53 0.0083062
*CONN
*I *2342:RESET_B I *D sky130_fd_sc_hd__dfrtp_4
*I *2303:Y O *D sky130_fd_sc_hd__inv_2
*CAP
1 *2342:RESET_B 0.000937882
2 *2303:Y 0.000673388
3 *53:12 0.00161127
4 *2342:RESET_B *2342:CLK 9.41642e-05
5 *2342:RESET_B *175:189 0.000183344
6 *2342:RESET_B *175:195 7.2159e-05
7 *2342:RESET_B *194:18 0.0016764
8 *53:12 *2303:A 0.000141555
9 *53:12 *138:26 0.000447899
10 *53:12 *169:102 0.000924682
11 *53:12 *169:108 8.10335e-05
12 *53:12 *169:160 0.000326665
13 *53:12 *175:84 0.000139632
14 *53:12 *180:20 0.000118944
15 *53:12 *214:10 0.000163235
16 *2342:D *2342:RESET_B 7.17235e-05
17 *2373:D *53:12 7.83587e-05
18 *33:26 *53:12 0.000141162
19 *35:30 *53:12 0.000422704
*RES
1 *2303:Y *53:12 41.3357 
2 *53:12 *2342:RESET_B 21.0446 
*END

*D_NET *54 0.00670354
*CONN
*I *2343:RESET_B I *D sky130_fd_sc_hd__dfrtp_4
*I *2304:Y O *D sky130_fd_sc_hd__inv_2
*CAP
1 *2343:RESET_B 0.00103897
2 *2304:Y 0.00145597
3 *54:12 0.00249494
4 *2343:RESET_B *2343:CLK 8.91805e-05
5 *2343:RESET_B *220:36 0.000305783
6 *54:12 *599:DIODE 5.70868e-06
7 *54:12 *2350:RESET_B 0.000113312
8 *54:12 *2369:CLK 4.94761e-05
9 *54:12 *2369:RESET_B 1.55667e-05
10 *54:12 *80:26 0.000103079
11 *54:12 *109:28 0
12 *54:12 *136:50 0
13 *54:12 *170:76 0.0005049
14 *54:12 *175:108 2.57826e-06
15 *54:12 *179:82 0.000251942
16 *552:DIODE *2343:RESET_B 0.000272147
17 *34:8 *54:12 0
*RES
1 *2304:Y *54:12 43.0143 
2 *54:12 *2343:RESET_B 14.1696 
*END

*D_NET *55 0.018238
*CONN
*I *2344:RESET_B I *D sky130_fd_sc_hd__dfrtp_2
*I *554:DIODE I *D sky130_fd_sc_hd__diode_2
*I *2305:Y O *D sky130_fd_sc_hd__inv_2
*CAP
1 *2344:RESET_B 0.00011763
2 *554:DIODE 6.08378e-05
3 *2305:Y 8.50052e-05
4 *55:20 0.00146268
5 *55:14 0.00278096
6 *55:10 0.00158175
7 *554:DIODE *115:70 9.25014e-06
8 *554:DIODE *154:10 6.42242e-05
9 *554:DIODE *161:10 2.87473e-05
10 *554:DIODE *177:12 1.52978e-05
11 *2344:RESET_B *177:23 0.000309537
12 *2344:RESET_B *208:6 4.78862e-05
13 *55:10 *197:18 1.63096e-05
14 *55:14 *613:DIODE 0.00012401
15 *55:14 *94:41 0
16 *55:14 *97:24 0.000135054
17 *55:14 *98:10 0.000283833
18 *55:14 *123:18 0.000716297
19 *55:14 *157:29 0.000477907
20 *55:14 *197:20 0.00328866
21 *55:20 *522:DIODE 0.000211454
22 *55:20 *2299:A1 0.000678072
23 *55:20 *97:24 0.000269226
24 *55:20 *117:26 3.36461e-05
25 *55:20 *123:18 0.0011113
26 *55:20 *144:37 0.000419249
27 *55:20 *144:43 0.000101545
28 *55:20 *171:66 0.000218679
29 *55:20 *177:23 9.71197e-05
30 *55:20 *181:142 0.00218879
31 *55:20 *191:74 0.000258063
32 *55:20 *197:20 0.000225208
33 *55:20 *203:78 0.000472897
34 *55:20 *206:56 0.000143745
35 *55:20 *208:6 0.000203171
36 *21:24 *55:14 0
*RES
1 *2305:Y *55:10 15.0946 
2 *55:10 *55:14 43.7857 
3 *55:14 *55:20 46.6696 
4 *55:20 *554:DIODE 19.9429 
5 *55:20 *2344:RESET_B 3.36607 
*END

*D_NET *56 0.0205561
*CONN
*I *556:DIODE I *D sky130_fd_sc_hd__diode_2
*I *2345:RESET_B I *D sky130_fd_sc_hd__dfrtp_4
*I *2306:Y O *D sky130_fd_sc_hd__inv_2
*CAP
1 *556:DIODE 0.00016721
2 *2345:RESET_B 0.000320831
3 *2306:Y 0.0025873
4 *56:20 0.000488041
5 *56:18 0.00121774
6 *56:16 0.00380504
7 *556:DIODE *116:48 0.0002083
8 *2345:RESET_B *113:30 3.61629e-06
9 *2345:RESET_B *116:48 0.000283814
10 *56:16 *66:24 0.00309102
11 *56:16 *67:16 0.000160867
12 *56:16 *170:129 0.000340062
13 *56:16 *184:144 0.000135711
14 *56:16 *195:132 0.00098398
15 *56:16 *204:28 2.46369e-06
16 *56:18 *87:10 0.000495713
17 *56:18 *96:46 0.00350224
18 *56:18 *182:80 1.06305e-05
19 *56:18 *191:52 0.000597467
20 *56:18 *193:22 2.06112e-05
21 *56:18 *198:68 1.05603e-05
22 *56:18 *210:12 0.00149847
23 *19:12 *56:18 0.000426578
24 *28:20 *56:16 0.000197861
*RES
1 *2306:Y *56:16 37.1422 
2 *56:16 *56:18 45.8125 
3 *56:18 *56:20 4.5 
4 *56:20 *2345:RESET_B 4.72321 
5 *56:20 *556:DIODE 11.4786 
*END

*D_NET *57 0.0111073
*CONN
*I *2346:RESET_B I *D sky130_fd_sc_hd__dfrtp_4
*I *2307:Y O *D sky130_fd_sc_hd__inv_2
*CAP
1 *2346:RESET_B 0.00302934
2 *2307:Y 0.00070972
3 *57:12 0.00373906
4 *2346:RESET_B *100:99 1.77736e-05
5 *2346:RESET_B *192:61 3.27075e-05
6 *2346:RESET_B *192:76 0.000103899
7 *2346:RESET_B *192:120 0.000104994
8 *2346:RESET_B *212:12 0.000285413
9 *57:12 *2229:B 0.000221634
10 *57:12 *2260:A 0.000139491
11 *57:12 *2307:A 0.000143651
12 *57:12 *2391:A 0.000358727
13 *57:12 *106:68 7.15591e-05
14 *57:12 *148:20 0.000148196
15 *57:12 *170:96 0.000222666
16 *57:12 *170:208 0.000814389
17 *57:12 *179:10 1.17968e-05
18 *57:12 *186:113 0.000308997
19 *21:24 *2346:RESET_B 0.000283698
20 *23:16 *57:12 9.41642e-05
21 *34:8 *57:12 0.000265392
*RES
1 *2307:Y *57:12 38.6214 
2 *57:12 *2346:RESET_B 44.5804 
*END

*D_NET *58 0.0206938
*CONN
*I *2347:RESET_B I *D sky130_fd_sc_hd__dfrtp_4
*I *559:DIODE I *D sky130_fd_sc_hd__diode_2
*I *2308:Y O *D sky130_fd_sc_hd__inv_2
*CAP
1 *2347:RESET_B 0
2 *559:DIODE 0.000334497
3 *2308:Y 0.00017587
4 *58:26 0.000472403
5 *58:18 0.00205021
6 *58:16 0.00434264
7 *58:12 0.00260621
8 *559:DIODE *175:219 0.000177941
9 *559:DIODE *194:18 0.00038907
10 *559:DIODE *211:10 0.000128154
11 *559:DIODE *211:60 4.97876e-05
12 *58:12 *2308:A 0.000229456
13 *58:12 *2334:A 5.52302e-05
14 *58:12 *104:30 0.00037763
15 *58:12 *170:155 1.21289e-05
16 *58:12 *171:198 0.000861382
17 *58:12 *171:211 1.69961e-05
18 *58:16 *65:6 0.000190903
19 *58:16 *104:30 0.00164358
20 *58:16 *171:211 5.52238e-05
21 *58:16 *171:230 0.0001839
22 *58:18 *2207:A 5.14742e-05
23 *58:18 *2370:RESET_B 0.00122478
24 *58:18 *67:26 0.000334843
25 *58:18 *111:10 0.000398822
26 *58:18 *134:113 0.00151376
27 *58:18 *134:126 0.000189441
28 *58:18 *184:155 3.67452e-05
29 *58:18 *184:161 0.00036561
30 *58:18 *192:126 0
31 *58:18 *211:60 0.00184059
32 *58:18 *211:118 5.33978e-05
33 *58:26 *175:219 9.22948e-05
34 *58:26 *211:60 0.000100823
35 *58:26 *217:30 0.000137983
*RES
1 *2308:Y *58:12 19.0321 
2 *58:12 *58:16 49.8036 
3 *58:16 *58:18 62.0536 
4 *58:18 *58:26 11.6964 
5 *58:26 *559:DIODE 19.8714 
6 *58:26 *2347:RESET_B 4.5 
*END

*D_NET *59 0.00716791
*CONN
*I *2348:RESET_B I *D sky130_fd_sc_hd__dfrtp_2
*I *2309:Y O *D sky130_fd_sc_hd__inv_2
*CAP
1 *2348:RESET_B 0.00092626
2 *2309:Y 0.00140655
3 *59:16 0.00233281
4 *2348:RESET_B *564:DIODE 3.66572e-05
5 *2348:RESET_B *94:16 0
6 *2348:RESET_B *141:114 0
7 *2348:RESET_B *176:142 0.00144801
8 *2348:RESET_B *206:88 0.000111922
9 *59:16 *2309:A 0.000101859
10 *59:16 *94:16 4.64488e-06
11 *59:16 *170:135 0.000343992
12 *59:16 *172:188 0.000268853
13 *59:16 *176:142 0
14 *565:DIODE *59:16 0.000111914
15 *21:36 *59:16 7.44262e-05
*RES
1 *2309:Y *59:16 37.6661 
2 *59:16 *2348:RESET_B 25.7232 
*END

*D_NET *60 0.0204597
*CONN
*I *2349:RESET_B I *D sky130_fd_sc_hd__dfrtp_4
*I *562:DIODE I *D sky130_fd_sc_hd__diode_2
*I *2310:Y O *D sky130_fd_sc_hd__inv_2
*CAP
1 *2349:RESET_B 0.000339885
2 *562:DIODE 0
3 *2310:Y 0
4 *60:16 0.000721978
5 *60:12 0.00191793
6 *60:10 0.00287161
7 *60:6 0.00133577
8 *2349:RESET_B *2349:CLK 0.000202996
9 *2349:RESET_B *213:12 9.3111e-05
10 *60:10 *118:28 0
11 *60:10 *125:10 0.00115198
12 *60:10 *170:151 0.000169008
13 *60:10 *170:173 0.000285474
14 *60:10 *195:120 0.00141596
15 *60:10 *195:156 0.000885356
16 *60:10 *202:24 0.000119291
17 *60:10 *202:94 0.0010436
18 *60:10 *212:10 0.000392574
19 *60:10 *212:12 9.24765e-05
20 *60:12 *98:10 0.000149164
21 *60:12 *117:26 4.81201e-05
22 *60:12 *121:12 0.000607897
23 *60:12 *138:26 0.000411011
24 *60:12 *159:16 0.000521573
25 *60:12 *159:18 0.000294446
26 *60:12 *159:24 0.000290696
27 *60:12 *167:28 9.8285e-06
28 *60:12 *202:24 0.00126993
29 *60:12 *212:12 0.00126352
30 *60:12 *212:14 6.63548e-05
31 *60:12 *212:20 0.00131951
32 *60:12 *213:24 7.74135e-05
33 *60:12 *217:22 0.000865799
34 *60:16 *219:24 0.000193526
35 *50:12 *2349:RESET_B 3.18676e-05
*RES
1 *2310:Y *60:6 13.8 
2 *60:6 *60:10 43.3125 
3 *60:10 *60:12 51.5804 
4 *60:12 *60:16 11.1964 
5 *60:16 *562:DIODE 9.3 
6 *60:16 *2349:RESET_B 7.0625 
*END

*D_NET *61 0.00339187
*CONN
*I *2350:RESET_B I *D sky130_fd_sc_hd__dfrtp_4
*I *2311:Y O *D sky130_fd_sc_hd__inv_2
*CAP
1 *2350:RESET_B 0.000770795
2 *2311:Y 0.000770795
3 *2350:RESET_B *599:DIODE 8.32991e-05
4 *2350:RESET_B *2350:CLK 0.000482113
5 *2350:RESET_B *170:44 9.24825e-05
6 *2350:RESET_B *175:92 0.000260497
7 *2350:RESET_B *175:108 0.000818573
8 *34:8 *2350:RESET_B 0
9 *54:12 *2350:RESET_B 0.000113312
*RES
1 *2311:Y *2350:RESET_B 37.5768 
*END

*D_NET *62 0.00199838
*CONN
*I *2351:RESET_B I *D sky130_fd_sc_hd__dfrtp_4
*I *2313:Y O *D sky130_fd_sc_hd__inv_2
*CAP
1 *2351:RESET_B 0.000460432
2 *2313:Y 0.000460432
3 *2351:RESET_B *564:DIODE 0.000214412
4 *2351:RESET_B *2183:A 0.000125733
5 *2351:RESET_B *95:18 0.000141053
6 *2351:RESET_B *134:173 4.40595e-05
7 *2351:RESET_B *141:114 0
8 *2351:RESET_B *172:188 9.99644e-06
9 *2351:RESET_B *184:20 0.000188527
10 *2351:RESET_B *184:114 4.47218e-05
11 *2351:RESET_B *207:37 0.000264393
12 *44:10 *2351:RESET_B 4.46191e-05
*RES
1 *2313:Y *2351:RESET_B 29.9518 
*END

*D_NET *63 0.00743097
*CONN
*I *2352:RESET_B I *D sky130_fd_sc_hd__dfrtp_4
*I *2314:Y O *D sky130_fd_sc_hd__inv_2
*CAP
1 *2352:RESET_B 0.000740099
2 *2314:Y 0.00108898
3 *63:12 0.00182908
4 *2352:RESET_B *76:8 0.00181056
5 *2352:RESET_B *172:206 9.23975e-05
6 *2352:RESET_B *185:14 0.000216755
7 *63:12 *118:28 8.34236e-05
8 *63:12 *202:94 0.000168147
9 *37:12 *63:12 0.00140151
*RES
1 *2314:Y *63:12 34.2286 
2 *63:12 *2352:RESET_B 17.7232 
*END

*D_NET *64 0.00156471
*CONN
*I *2353:RESET_B I *D sky130_fd_sc_hd__dfrtp_4
*I *2315:Y O *D sky130_fd_sc_hd__inv_2
*CAP
1 *2353:RESET_B 0.00024589
2 *2315:Y 0.00024589
3 *2353:RESET_B *94:20 0.000511033
4 *2353:RESET_B *181:142 5.33005e-05
5 *21:24 *2353:RESET_B 0.000508597
*RES
1 *2315:Y *2353:RESET_B 25.6393 
*END

*D_NET *65 0.0188211
*CONN
*I *569:DIODE I *D sky130_fd_sc_hd__diode_2
*I *2354:RESET_B I *D sky130_fd_sc_hd__dfrtp_2
*I *2316:Y O *D sky130_fd_sc_hd__inv_2
*CAP
1 *569:DIODE 0
2 *2354:RESET_B 0.000312408
3 *2316:Y 0.00262694
4 *65:18 0.00166187
5 *65:12 0.00230386
6 *65:6 0.00358134
7 *2354:RESET_B *2354:CLK 9.60939e-05
8 *2354:RESET_B *126:12 1.39198e-05
9 *2354:RESET_B *175:219 7.74135e-05
10 *2354:RESET_B *211:60 0.000100478
11 *65:6 *104:30 0.00160001
12 *65:6 *170:155 0.000183015
13 *65:12 *2270:A 0
14 *65:12 *106:88 0
15 *65:12 *195:132 5.63666e-05
16 *65:12 *200:106 0
17 *65:18 *2283:A 0.000685256
18 *65:18 *66:24 0.000521202
19 *65:18 *186:100 0.00105536
20 *65:18 *186:113 4.73656e-05
21 *65:18 *200:72 0.000252003
22 *65:18 *200:106 0
23 *2354:D *2354:RESET_B 6.87574e-05
24 *41:24 *65:12 0
25 *41:24 *65:18 0.000282279
26 *41:28 *65:12 0.000484208
27 *47:12 *65:18 8.37895e-05
28 *52:10 *65:18 0.00253629
29 *58:16 *65:6 0.000190903
*RES
1 *2316:Y *65:6 45.5679 
2 *65:6 *65:12 24.1339 
3 *65:12 *65:18 44.2589 
4 *65:18 *2354:RESET_B 14.5089 
5 *65:18 *569:DIODE 9.3 
*END

*D_NET *66 0.0297081
*CONN
*I *2355:RESET_B I *D sky130_fd_sc_hd__dfrtp_2
*I *571:DIODE I *D sky130_fd_sc_hd__diode_2
*I *2317:Y O *D sky130_fd_sc_hd__inv_2
*CAP
1 *2355:RESET_B 0.000397507
2 *571:DIODE 0
3 *2317:Y 0.00615287
4 *66:32 0.00219684
5 *66:24 0.00795221
6 *2355:RESET_B *176:65 0.00018015
7 *2355:RESET_B *176:74 8.35129e-05
8 *2355:RESET_B *188:8 8.6902e-05
9 *66:24 *67:16 2.67846e-05
10 *66:24 *67:26 0
11 *66:24 *94:16 2.10888e-05
12 *66:24 *94:20 7.05046e-05
13 *66:24 *136:50 5.29004e-05
14 *66:24 *171:135 0.000141047
15 *66:24 *176:52 0.000222146
16 *66:24 *176:63 2.06112e-05
17 *66:24 *179:10 0.000142843
18 *66:24 *179:82 2.06112e-05
19 *66:24 *186:100 0.000243611
20 *66:24 *195:132 6.8851e-05
21 *66:24 *200:72 0.000116627
22 *66:32 *94:16 0.000110272
23 *66:32 *176:63 4.8271e-05
24 *66:32 *176:65 0.00112006
25 *66:32 *176:123 4.37451e-05
26 *28:20 *66:24 0.00173694
27 *31:24 *66:24 0.00202848
28 *34:8 *66:24 0.000358947
29 *41:24 *66:24 0.000947361
30 *47:12 *66:24 0.000687984
31 *52:10 *66:24 0.000816177
32 *56:16 *66:24 0.00309102
33 *65:18 *66:24 0.000521202
*RES
1 *2317:Y *66:24 49.7088 
2 *66:24 *66:32 28.4196 
3 *66:32 *571:DIODE 9.3 
4 *66:32 *2355:RESET_B 7.0625 
*END

*D_NET *67 0.0279046
*CONN
*I *574:DIODE I *D sky130_fd_sc_hd__diode_2
*I *2356:RESET_B I *D sky130_fd_sc_hd__dfrtp_4
*I *2318:Y O *D sky130_fd_sc_hd__inv_2
*CAP
1 *574:DIODE 0
2 *2356:RESET_B 0.000323659
3 *2318:Y 0.00663509
4 *67:26 0.00240574
5 *67:16 0.00871717
6 *2356:RESET_B *119:133 0.000124527
7 *2356:RESET_B *126:40 0.000127446
8 *2356:RESET_B *189:12 0.000102653
9 *67:16 *2213:A1 0
10 *67:16 *2216:C 0
11 *67:16 *2231:B 0
12 *67:16 *90:24 0
13 *67:16 *114:10 0
14 *67:16 *115:112 8.00806e-05
15 *67:16 *116:78 0
16 *67:16 *140:14 0.000303859
17 *67:16 *171:180 5.17016e-05
18 *67:16 *195:132 0.00344734
19 *67:26 *111:10 0.000287566
20 *67:26 *119:133 0.000416674
21 *67:26 *126:40 0.000178293
22 *67:26 *134:113 0.000240773
23 *67:26 *170:100 0.000245186
24 *67:26 *184:161 0.000327099
25 *67:26 *192:120 0.000154232
26 *67:26 *192:126 0.000265721
27 *67:26 *211:60 0.00058812
28 *2300:A *67:16 0.00192986
29 *2356:D *2356:RESET_B 0.000178847
30 *28:20 *67:16 0
31 *28:20 *67:26 0.000250505
32 *31:14 *67:16 0
33 *56:16 *67:16 0.000160867
34 *58:18 *67:26 0.000334843
35 *66:24 *67:16 2.67846e-05
36 *66:24 *67:26 0
*RES
1 *2318:Y *67:16 49.2643 
2 *67:16 *67:26 12.66 
3 *67:26 *2356:RESET_B 10.4554 
4 *67:26 *574:DIODE 13.8 
*END

*D_NET *68 0.0084244
*CONN
*I *2357:RESET_B I *D sky130_fd_sc_hd__dfrtp_4
*I *2319:Y O *D sky130_fd_sc_hd__inv_2
*CAP
1 *2357:RESET_B 0.002504
2 *2319:Y 0.002504
3 *2357:RESET_B *578:DIODE 0.000139485
4 *2357:RESET_B *2239:A 5.71472e-05
5 *2357:RESET_B *2359:RESET_B 0.00116901
6 *2357:RESET_B *134:224 0.00018077
7 *2357:RESET_B *153:55 0.000304387
8 *2357:RESET_B *171:16 1.97865e-05
9 *2357:RESET_B *174:165 9.55545e-05
10 *2357:RESET_B *179:170 6.57914e-05
11 *2357:RESET_B *217:30 0.000128809
12 *27:14 *2357:RESET_B 0.00125566
*RES
1 *2319:Y *2357:RESET_B 47.4339 
*END

*D_NET *69 0.0094535
*CONN
*I *2358:RESET_B I *D sky130_fd_sc_hd__dfrtp_4
*I *2320:Y O *D sky130_fd_sc_hd__inv_2
*CAP
1 *2358:RESET_B 0.000369193
2 *2320:Y 0.00133673
3 *69:8 0.00170592
4 *2358:RESET_B *193:50 0.000722847
5 *2358:RESET_B *214:68 0.000154926
6 *69:8 *2372:RESET_B 0.000745574
7 *69:8 *125:16 0.00308344
8 *69:8 *171:238 0.000143375
9 *31:14 *2358:RESET_B 0.0011915
*RES
1 *2320:Y *69:8 48.425 
2 *69:8 *2358:RESET_B 19.8036 
*END

*D_NET *70 0.0131172
*CONN
*I *2359:RESET_B I *D sky130_fd_sc_hd__dfrtp_4
*I *2321:Y O *D sky130_fd_sc_hd__inv_2
*CAP
1 *2359:RESET_B 0.000600809
2 *2321:Y 0.000371288
3 *70:12 0.00190589
4 *70:8 0.00167637
5 *2359:RESET_B *441:DIODE 0.000185394
6 *2359:RESET_B *116:72 0.000148189
7 *2359:RESET_B *172:62 1.5424e-05
8 *2359:RESET_B *186:30 1.34631e-05
9 *2359:RESET_B *188:22 0.000259267
10 *2359:RESET_B *191:16 0.000149911
11 *2359:RESET_B *201:65 0.000710706
12 *70:8 *179:106 0.000573116
13 *70:12 *603:DIODE 4.79773e-05
14 *70:12 *82:18 2.47112e-05
15 *70:12 *99:27 8.64727e-05
16 *70:12 *105:12 0.00146724
17 *70:12 *119:42 0
18 *70:12 *122:35 2.74584e-05
19 *70:12 *122:43 0
20 *70:12 *181:22 0.00183072
21 *70:12 *182:46 0.000543451
22 *70:12 *198:28 4.66203e-05
23 *70:12 *218:34 0.00013514
24 *70:12 *218:76 0.000952722
25 *2357:RESET_B *2359:RESET_B 0.00116901
26 *27:14 *2359:RESET_B 0.000175892
*RES
1 *2321:Y *70:8 19.2643 
2 *70:8 *70:12 45 
3 *70:12 *2359:RESET_B 27.5 
*END

*D_NET *71 0.0159651
*CONN
*I *581:DIODE I *D sky130_fd_sc_hd__diode_2
*I *2360:RESET_B I *D sky130_fd_sc_hd__dfrtp_4
*I *2322:Y O *D sky130_fd_sc_hd__inv_2
*CAP
1 *581:DIODE 0
2 *2360:RESET_B 0.000658985
3 *2322:Y 0.00384306
4 *71:22 0.00157406
5 *71:16 0.00475813
6 *2360:RESET_B *2363:RESET_B 0.000225919
7 *2360:RESET_B *179:106 0.000116447
8 *2360:RESET_B *197:18 3.4855e-05
9 *71:16 *529:DIODE 0.000263734
10 *71:16 *80:22 1.38336e-05
11 *71:16 *123:18 0.000346329
12 *71:16 *132:18 0
13 *71:16 *171:120 0.000392856
14 *71:16 *172:10 5.94205e-05
15 *71:16 *180:20 0.000177256
16 *71:16 *180:52 1.00332e-05
17 *71:22 *334:DIODE 0
18 *71:22 *424:DIODE 0.000100823
19 *71:22 *2224:A 0
20 *71:22 *179:106 0.000130221
21 *71:22 *184:54 0.000672213
22 *71:22 *186:36 0.000470796
23 *71:22 *195:72 0
24 *71:22 *196:44 0
25 *71:22 *218:34 0.000200635
26 *2379:A *71:16 0.0018204
27 *21:22 *71:22 2.15121e-05
28 *30:16 *71:16 0
29 *40:18 *2360:RESET_B 7.35798e-05
*RES
1 *2322:Y *71:16 34.5293 
2 *71:16 *71:22 24.3482 
3 *71:22 *2360:RESET_B 20.5982 
4 *71:22 *581:DIODE 9.3 
*END

*D_NET *72 0.00580405
*CONN
*I *2361:RESET_B I *D sky130_fd_sc_hd__dfrtp_4
*I *2324:Y O *D sky130_fd_sc_hd__inv_2
*CAP
1 *2361:RESET_B 0.00175758
2 *2324:Y 0.00175758
3 *2361:RESET_B *2361:CLK 0.000438695
4 *2361:RESET_B *131:44 1.50223e-05
5 *2361:RESET_B *148:14 0.000319878
6 *2361:RESET_B *176:82 8.68854e-05
7 *2361:RESET_B *178:95 0.000771988
8 *2361:RESET_B *195:6 0.000288691
9 *2361:RESET_B *195:42 0.00031273
10 *2361:RESET_B *195:120 5.49995e-05
*RES
1 *2324:Y *2361:RESET_B 47.3982 
*END

*D_NET *73 0.0202929
*CONN
*I *2362:RESET_B I *D sky130_fd_sc_hd__dfrtp_4
*I *585:DIODE I *D sky130_fd_sc_hd__diode_2
*I *2325:Y O *D sky130_fd_sc_hd__inv_2
*CAP
1 *2362:RESET_B 0.000215785
2 *585:DIODE 0
3 *2325:Y 0.00109389
4 *73:18 0.00147512
5 *73:16 0.00210475
6 *73:12 0.00193931
7 *2362:RESET_B *175:185 0.000189947
8 *2362:RESET_B *196:10 4.87953e-05
9 *73:12 *2325:A 5.9781e-05
10 *73:12 *2327:A 6.47765e-05
11 *73:12 *75:16 0.00137193
12 *73:12 *172:90 0.000165627
13 *73:12 *172:94 0.000169359
14 *73:12 *172:96 6.90625e-05
15 *73:12 *172:98 0.000417304
16 *73:12 *172:160 0.000263243
17 *73:12 *192:36 0.000921505
18 *73:16 *101:24 0.0001326
19 *73:16 *119:42 0.000587202
20 *73:16 *122:45 0.00205083
21 *73:16 *145:10 0.000347321
22 *73:16 *162:8 0
23 *73:18 *250:DIODE 0.000464893
24 *73:18 *2186:D_N 0.000178847
25 *73:18 *2245:B 0.000137561
26 *73:18 *2339:A 0.000178847
27 *73:18 *169:40 0.000267705
28 *73:18 *169:75 9.60939e-05
29 *73:18 *169:100 0.00174914
30 *73:18 *175:168 4.10926e-05
31 *73:18 *175:185 0.0001826
32 *73:18 *190:118 0.000552525
33 *73:18 *191:90 1.98839e-05
34 *73:18 *191:112 6.12434e-05
35 *73:18 *196:10 9.76435e-06
36 *73:18 *211:38 0.001544
37 *48:12 *73:18 0.00112059
*RES
1 *2325:Y *73:12 43.6393 
2 *73:12 *73:16 31.3393 
3 *73:16 *73:18 40.375 
4 *73:18 *585:DIODE 9.3 
5 *73:18 *2362:RESET_B 4.1875 
*END

*D_NET *74 0.0131488
*CONN
*I *2363:RESET_B I *D sky130_fd_sc_hd__dfrtp_4
*I *588:DIODE I *D sky130_fd_sc_hd__diode_2
*I *2326:Y O *D sky130_fd_sc_hd__inv_2
*CAP
1 *2363:RESET_B 0.000447812
2 *588:DIODE 0
3 *2326:Y 0.000251189
4 *74:12 0.000447812
5 *74:10 0.00251082
6 *74:8 0.002762
7 *2363:RESET_B *2360:CLK 4.45204e-05
8 *2363:RESET_B *174:28 3.32662e-05
9 *2363:RESET_B *197:18 0.000225097
10 *74:8 *2326:A 0.000224577
11 *74:8 *100:75 0.000328353
12 *74:10 *254:DIODE 0.000105696
13 *74:10 *2184:C 0.000148196
14 *74:10 *2187:A 6.42338e-05
15 *74:10 *2290:A 1.43349e-05
16 *74:10 *78:10 0.00162815
17 *74:10 *90:18 0.00048004
18 *74:10 *105:24 0.000128623
19 *74:10 *115:34 0
20 *74:10 *116:12 0
21 *74:10 *186:10 6.06412e-05
22 *74:10 *186:30 0.000276999
23 *74:10 *188:14 0.000362923
24 *74:10 *198:44 0
25 *74:10 *201:48 9.96264e-05
26 *74:10 *219:16 0
27 *2360:RESET_B *2363:RESET_B 0.000225919
28 *2371:D *74:10 9.21315e-05
29 *18:10 *74:10 0.00141144
30 *30:18 *74:10 0.000463762
31 *40:18 *2363:RESET_B 0.000310612
*RES
1 *2326:Y *74:8 19.675 
2 *74:8 *74:10 64.4821 
3 *74:10 *74:12 4.5 
4 *74:12 *588:DIODE 9.3 
5 *74:12 *2363:RESET_B 17.8839 
*END

*D_NET *75 0.0204597
*CONN
*I *591:DIODE I *D sky130_fd_sc_hd__diode_2
*I *2364:RESET_B I *D sky130_fd_sc_hd__dfrtp_2
*I *2327:Y O *D sky130_fd_sc_hd__inv_2
*CAP
1 *591:DIODE 0
2 *2364:RESET_B 0.000340088
3 *2327:Y 0.000419122
4 *75:38 0.000829581
5 *75:32 0.00425173
6 *75:16 0.00418136
7 *2364:RESET_B *530:DIODE 7.40432e-05
8 *2364:RESET_B *2323:A 5.38444e-06
9 *2364:RESET_B *2364:CLK 0.000302376
10 *2364:RESET_B *169:108 0.000393386
11 *2364:RESET_B *169:125 2.84026e-05
12 *2364:RESET_B *172:10 5.52238e-05
13 *75:16 *116:72 7.83587e-05
14 *75:16 *172:94 9.41642e-05
15 *75:16 *172:96 5.33005e-05
16 *75:16 *192:36 0.00137211
17 *75:32 *2193:B 0
18 *75:32 *2218:B 0.000554267
19 *75:32 *2380:A 6.70818e-05
20 *75:32 *2381:A 2.80175e-05
21 *75:32 *99:27 0.000572792
22 *75:32 *106:34 0
23 *75:32 *117:26 0
24 *75:32 *120:14 0.00111284
25 *75:32 *136:50 0.00014192
26 *75:32 *138:26 0.00047903
27 *75:32 *149:16 0.000256512
28 *75:32 *153:20 0
29 *75:32 *180:52 1.1192e-05
30 *75:32 *181:22 9.90115e-06
31 *75:32 *184:54 0
32 *75:32 *195:90 0.000135028
33 *75:32 *209:22 6.35864e-05
34 *75:32 *209:39 0.000170575
35 *75:32 *211:78 0.000100823
36 *75:32 *218:50 0
37 *75:38 *2245:B 8.38397e-05
38 *75:38 *138:26 1.84897e-05
39 *75:38 *196:14 0.00107708
40 *2341:RESET_B *75:32 2.40716e-05
41 *27:14 *75:32 0.000509758
42 *33:26 *75:38 0.000897277
43 *41:18 *2364:RESET_B 8.93214e-05
44 *41:18 *75:38 6.8377e-06
45 *41:22 *2364:RESET_B 1.52601e-05
46 *42:24 *75:38 0.000183599
47 *73:12 *75:16 0.00137193
*RES
1 *2327:Y *75:16 38.4607 
2 *75:16 *75:32 49.6272 
3 *75:32 *75:38 19.6875 
4 *75:38 *2364:RESET_B 8.74107 
5 *75:38 *591:DIODE 9.3 
*END

*D_NET *76 0.010413
*CONN
*I *2365:RESET_B I *D sky130_fd_sc_hd__dfrtp_4
*I *2328:Y O *D sky130_fd_sc_hd__inv_2
*CAP
1 *2365:RESET_B 0.000219404
2 *2328:Y 0
3 *76:8 0.00353744
4 *76:4 0.00331804
5 *2365:RESET_B *2272:B 9.80405e-05
6 *2365:RESET_B *149:32 7.6644e-05
7 *2365:RESET_B *150:35 0.000370427
8 *2365:RESET_B *177:104 1.85502e-05
9 *2365:RESET_B *177:124 0.000181888
10 *76:8 *2328:A 0.000123068
11 *76:8 *82:16 0.000226116
12 *76:8 *172:162 9.35114e-06
13 *76:8 *172:178 0.000193658
14 *76:8 *172:206 3.80414e-05
15 *76:8 *180:156 0.000177821
16 *2352:D *76:8 1.39841e-05
17 *2352:RESET_B *76:8 0.00181056
*RES
1 *2328:Y *76:4 9.3 
2 *76:4 *76:8 45.6964 
3 *76:8 *2365:RESET_B 10.6964 
*END

*D_NET *77 0.00931774
*CONN
*I *2366:RESET_B I *D sky130_fd_sc_hd__dfrtp_2
*I *2329:Y O *D sky130_fd_sc_hd__inv_2
*CAP
1 *2366:RESET_B 0.00110144
2 *2329:Y 0.000356184
3 *77:8 0.00145762
4 *2366:RESET_B *110:10 0.000958897
5 *2366:RESET_B *170:92 0.00278066
6 *2366:RESET_B *175:185 9.34004e-05
7 *2366:RESET_B *175:242 8.44027e-05
8 *2366:RESET_B *185:30 1.18358e-05
9 *2366:RESET_B *186:117 0.000244358
10 *77:8 *436:DIODE 0.000126572
11 *77:8 *2267:A 0.0003939
12 *77:8 *218:58 0.00107076
13 *28:20 *2366:RESET_B 0.000637713
*RES
1 *2329:Y *77:8 24.1929 
2 *77:8 *2366:RESET_B 43.7857 
*END

*D_NET *78 0.00724112
*CONN
*I *2367:RESET_B I *D sky130_fd_sc_hd__dfrtp_2
*I *2330:Y O *D sky130_fd_sc_hd__inv_2
*CAP
1 *2367:RESET_B 0.000383021
2 *2330:Y 0.000651285
3 *78:10 0.00103431
4 *2367:RESET_B *219:16 0.000227539
5 *78:10 *2290:A 0.000342247
6 *78:10 *90:18 0.000125685
7 *78:10 *105:24 0.000937045
8 *2367:D *2367:RESET_B 0.000509018
9 *35:14 *2367:RESET_B 0.00140282
10 *74:10 *78:10 0.00162815
*RES
1 *2330:Y *78:10 39.675 
2 *78:10 *2367:RESET_B 13.6161 
*END

*D_NET *79 0.000488467
*CONN
*I *2368:RESET_B I *D sky130_fd_sc_hd__dfrtp_1
*I *2331:Y O *D sky130_fd_sc_hd__inv_2
*CAP
1 *2368:RESET_B 0.000143664
2 *2331:Y 0.000143664
3 *2368:RESET_B *94:20 0.00010288
4 *2368:RESET_B *199:92 9.82582e-05
*RES
1 *2331:Y *2368:RESET_B 21.3446 
*END

*D_NET *80 0.0153035
*CONN
*I *2369:RESET_B I *D sky130_fd_sc_hd__dfrtp_4
*I *599:DIODE I *D sky130_fd_sc_hd__diode_2
*I *2332:Y O *D sky130_fd_sc_hd__inv_2
*CAP
1 *2369:RESET_B 0.000304805
2 *599:DIODE 0.000175195
3 *2332:Y 0.000768484
4 *80:26 0.000655723
5 *80:22 0.00167388
6 *80:16 0.00223994
7 *80:12 0.00151027
8 *599:DIODE *170:34 0
9 *599:DIODE *170:36 0
10 *599:DIODE *170:42 0
11 *2369:RESET_B *2369:CLK 5.23822e-05
12 *2369:RESET_B *170:76 9.6453e-05
13 *80:12 *2223:B 0.000137561
14 *80:12 *119:24 0.000179171
15 *80:12 *119:26 0.000101859
16 *80:12 *159:16 9.44309e-06
17 *80:12 *172:46 7.66181e-05
18 *80:12 *175:33 0
19 *80:12 *208:32 0.000536124
20 *80:12 *208:38 0.000137152
21 *80:16 *113:18 0.000545855
22 *80:16 *202:62 0.000642087
23 *80:22 *102:8 0.000954526
24 *80:22 *151:69 0.00041036
25 *80:22 *172:10 0.000591997
26 *80:22 *172:21 0.000154007
27 *80:22 *172:46 0.000720579
28 *80:22 *175:86 0.00028148
29 *80:22 *175:90 0.000533388
30 *80:22 *175:140 0.000373046
31 *80:22 *175:153 0.000178528
32 *80:22 *175:168 0.000814441
33 *80:22 *180:20 0
34 *80:26 *136:50 0.000222182
35 *2350:RESET_B *599:DIODE 8.32991e-05
36 *34:8 *599:DIODE 0
37 *39:24 *80:12 4.46186e-06
38 *54:12 *599:DIODE 5.70868e-06
39 *54:12 *2369:RESET_B 1.55667e-05
40 *54:12 *80:26 0.000103079
41 *71:16 *80:22 1.38336e-05
*RES
1 *2332:Y *80:12 34.6214 
2 *80:12 *80:16 20.2321 
3 *80:16 *80:22 47.4821 
4 *80:22 *80:26 8.875 
5 *80:26 *599:DIODE 16.6571 
6 *80:26 *2369:RESET_B 9.22321 
*END

*D_NET *81 0.0095097
*CONN
*I *2370:RESET_B I *D sky130_fd_sc_hd__dfrtp_4
*I *2333:Y O *D sky130_fd_sc_hd__inv_2
*CAP
1 *2370:RESET_B 0.000779699
2 *2333:Y 0.00175529
3 *81:8 0.00253499
4 *2370:RESET_B *2179:A 8.50795e-06
5 *2370:RESET_B *91:14 0.000797399
6 *2370:RESET_B *111:10 0.00019379
7 *2370:RESET_B *192:126 0
8 *2370:RESET_B *213:152 2.56694e-05
9 *81:8 *540:DIODE 0.000183587
10 *81:8 *2207:B 0.000184745
11 *81:8 *150:35 0.00182125
12 *58:18 *2370:RESET_B 0.00122478
*RES
1 *2333:Y *81:8 45.1393 
2 *81:8 *2370:RESET_B 27.5536 
*END

*D_NET *82 0.0169475
*CONN
*I *2371:RESET_B I *D sky130_fd_sc_hd__dfrtp_2
*I *603:DIODE I *D sky130_fd_sc_hd__diode_2
*I *2334:Y O *D sky130_fd_sc_hd__inv_2
*CAP
1 *2371:RESET_B 6.92037e-05
2 *603:DIODE 5.39538e-05
3 *2334:Y 0.000847452
4 *82:18 0.00135346
5 *82:16 0.00136097
6 *82:12 0.000978116
7 *603:DIODE *122:43 4.79773e-05
8 *2371:RESET_B *174:18 0.000108222
9 *2371:RESET_B *206:14 0.000130112
10 *2371:RESET_B *206:40 9.66977e-05
11 *82:12 *2247:A 0.00133186
12 *82:12 *96:46 0.00216452
13 *82:12 *152:36 0.000155741
14 *82:12 *169:241 9.25014e-06
15 *82:12 *170:155 5.33005e-05
16 *82:12 *201:69 0.000296613
17 *82:16 *172:178 0.000229092
18 *82:18 *101:24 0.000603939
19 *82:18 *106:34 0.000311762
20 *82:18 *122:43 2.34505e-05
21 *82:18 *122:45 0.0034899
22 *82:18 *178:97 0.000725304
23 *82:18 *218:34 0.000132119
24 *82:18 *218:76 0.00207571
25 *70:12 *603:DIODE 4.79773e-05
26 *70:12 *82:18 2.47112e-05
27 *76:8 *82:16 0.000226116
*RES
1 *2334:Y *82:12 47.1929 
2 *82:12 *82:16 8.73214 
3 *82:16 *82:18 46.875 
4 *82:18 *603:DIODE 15.1393 
5 *82:18 *2371:RESET_B 6.61607 
*END

*D_NET *83 0.00986447
*CONN
*I *2372:RESET_B I *D sky130_fd_sc_hd__dfrtp_1
*I *2335:Y O *D sky130_fd_sc_hd__inv_2
*CAP
1 *2372:RESET_B 0.000888402
2 *2335:Y 0.000830442
3 *83:10 0.00171884
4 *2372:RESET_B *171:230 0.000428486
5 *2372:RESET_B *171:238 0.000183477
6 *2372:RESET_B *207:6 3.07377e-05
7 *83:10 *390:DIODE 5.52238e-05
8 *83:10 *2335:A 0.000229456
9 *83:10 *118:22 0.00165399
10 *83:10 *122:45 0.000729651
11 *83:10 *122:73 0.000731265
12 *83:10 *169:206 0.000379569
13 *83:10 *178:97 0.00125935
14 *69:8 *2372:RESET_B 0.000745574
*RES
1 *2335:Y *83:10 46.05 
2 *83:10 *2372:RESET_B 21.8125 
*END

*D_NET *84 0.00857417
*CONN
*I *2373:RESET_B I *D sky130_fd_sc_hd__dfrtp_4
*I *2336:Y O *D sky130_fd_sc_hd__inv_2
*CAP
1 *2373:RESET_B 0.00085927
2 *2336:Y 0.000983966
3 *84:12 0.00184324
4 *2373:RESET_B *171:135 0.000139464
5 *2373:RESET_B *199:112 0.00053589
6 *2373:RESET_B *200:14 0.000976172
7 *2373:RESET_B *203:50 0.000316648
8 *84:12 *2283:A 2.37302e-05
9 *84:12 *2336:A 0.000127806
10 *84:12 *169:160 0.00152689
11 *84:12 *199:112 0.00050103
12 *84:12 *200:14 0.000256852
13 *30:16 *2373:RESET_B 0.000361705
14 *31:24 *84:12 0.000121501
*RES
1 *2336:Y *84:12 37.3446 
2 *84:12 *2373:RESET_B 30.1696 
*END

*D_NET *85 0.00732766
*CONN
*I *2374:RESET_B I *D sky130_fd_sc_hd__dfrtp_4
*I *2337:Y O *D sky130_fd_sc_hd__inv_2
*CAP
1 *2374:RESET_B 0.000405786
2 *2337:Y 0.00138224
3 *85:8 0.00178803
4 *2374:RESET_B *143:28 9.22093e-05
5 *2374:RESET_B *156:91 0.000677318
6 *2374:RESET_B *171:116 4.83516e-05
7 *2374:RESET_B *178:10 2.22419e-05
8 *2374:RESET_B *178:16 0.000326231
9 *2374:RESET_B *178:34 5.33005e-05
10 *2374:RESET_B *199:134 0
11 *85:8 *2289:B 0.000445008
12 *85:8 *2337:A 0.000117553
13 *85:8 *165:10 0.000125004
14 *85:8 *220:36 0.0013338
15 *85:8 *220:38 2.12087e-05
16 *85:8 *220:42 5.90743e-05
17 *85:8 *220:53 0.000430305
*RES
1 *2337:Y *85:8 41.8536 
2 *85:8 *2374:RESET_B 15.1339 
*END

*D_NET *86 0.00157293
*CONN
*I *2375:RESET_B I *D sky130_fd_sc_hd__dfrtp_4
*I *2338:Y O *D sky130_fd_sc_hd__inv_2
*CAP
1 *2375:RESET_B 0.000475843
2 *2338:Y 0.000475843
3 *2375:RESET_B *608:DIODE 0.000174232
4 *2375:RESET_B *2338:A 9.90431e-05
5 *2375:RESET_B *2375:CLK 9.90367e-05
6 *2348:D *2375:RESET_B 0.000135432
7 *2375:D *2375:RESET_B 0.000113501
*RES
1 *2338:Y *2375:RESET_B 19.5054 
*END

*D_NET *87 0.00821989
*CONN
*I *2376:RESET_B I *D sky130_fd_sc_hd__dfrtp_4
*I *2339:Y O *D sky130_fd_sc_hd__inv_2
*CAP
1 *2376:RESET_B 0.00146379
2 *2339:Y 0.00031705
3 *87:10 0.00178084
4 *2376:RESET_B *2200:B 0.000741544
5 *2376:RESET_B *108:20 0.000510144
6 *2376:RESET_B *172:46 0.000167151
7 *2376:RESET_B *172:50 9.63055e-05
8 *2376:RESET_B *182:14 2.73599e-05
9 *2376:RESET_B *182:80 5.33005e-05
10 *2376:RESET_B *196:93 8.95645e-05
11 *2376:RESET_B *221:14 2.25966e-05
12 *87:10 *96:46 3.22738e-05
13 *87:10 *174:126 0.000310307
14 *87:10 *182:32 0.000681194
15 *87:10 *182:80 0.000183752
16 *2376:D *2376:RESET_B 0.00124701
17 *56:18 *87:10 0.000495713
*RES
1 *2339:Y *87:10 29.6571 
2 *87:10 *2376:RESET_B 30.6339 
*END

*D_NET *88 0.0118607
*CONN
*I *2377:RESET_B I *D sky130_fd_sc_hd__dfrtp_4
*I *2340:Y O *D sky130_fd_sc_hd__inv_2
*CAP
1 *2377:RESET_B 0.00245022
2 *2340:Y 0.000805493
3 *88:12 0.00325571
4 *2377:RESET_B *119:42 0.000274695
5 *2377:RESET_B *122:43 0.000211143
6 *2377:RESET_B *122:45 3.20387e-05
7 *2377:RESET_B *167:38 0.00110021
8 *2377:RESET_B *178:8 0.00013179
9 *2377:RESET_B *189:30 5.8946e-05
10 *2377:RESET_B *213:24 8.25843e-06
11 *2377:RESET_B *214:22 0.00135132
12 *2377:RESET_B *218:50 0.000178425
13 *88:12 *2340:A 0.000185124
14 *88:12 *131:18 0.000207313
15 *88:12 *134:8 0.000125371
16 *88:12 *134:10 0.000297296
17 *88:12 *134:16 0.00019702
18 *88:12 *169:40 0.000196908
19 *88:12 *169:176 2.64844e-05
20 *88:12 *201:22 0.000766962
*RES
1 *2340:Y *88:12 36.8179 
2 *88:12 *2377:RESET_B 48.6875 
*END

*D_NET *89 0.00856007
*CONN
*I *2377:D I *D sky130_fd_sc_hd__dfrtp_4
*I *2189:Y O *D sky130_fd_sc_hd__xnor2_1
*CAP
1 *2377:D 0
2 *2189:Y 0
3 *89:12 0.00127274
4 *89:6 0.00127274
5 *89:12 *2249:D 0.000350078
6 *89:12 *95:24 0
7 *89:12 *107:10 1.81709e-05
8 *89:12 *124:16 0.00064507
9 *89:12 *141:8 0.00017885
10 *89:12 *141:58 0.000531627
11 *89:12 *173:14 2.22043e-05
12 *89:12 *173:18 0.000271408
13 *89:12 *174:173 0.000514797
14 *89:12 *178:8 2.85234e-05
15 *89:12 *190:16 0.000990587
16 *89:12 *214:22 5.33005e-05
17 *2368:D *89:12 0.00133284
18 *50:12 *89:12 0.00100999
19 *51:12 *89:12 6.71473e-05
*RES
1 *2189:Y *89:6 13.8 
2 *89:6 *89:12 45.2321 
3 *89:12 *2377:D 9.3 
*END

*D_NET *90 0.029971
*CONN
*I *2182:A I *D sky130_fd_sc_hd__or4_2
*I *238:DIODE I *D sky130_fd_sc_hd__diode_2
*I *2178:X O *D sky130_fd_sc_hd__or4b_2
*CAP
1 *2182:A 8.59293e-05
2 *238:DIODE 1.0656e-05
3 *2178:X 0.00850804
4 *90:24 0.00285293
5 *90:18 0.0112644
6 *238:DIODE *141:114 5.7836e-06
7 *238:DIODE *184:114 2.06112e-05
8 *2182:A *2182:D 0.000219366
9 *2182:A *130:20 0.000219366
10 *2182:A *141:114 8.49755e-06
11 *2182:A *184:114 4.04292e-05
12 *90:18 *2178:A 8.05775e-05
13 *90:18 *2236:A 9.0837e-05
14 *90:18 *105:24 0.00045155
15 *90:18 *120:18 0.000116155
16 *90:18 *158:22 0
17 *90:18 *172:88 0.000155935
18 *90:18 *174:92 0.000110498
19 *90:18 *176:82 0.000165754
20 *90:18 *181:10 0.000368048
21 *90:18 *181:12 0.000146284
22 *90:18 *185:84 0.000867109
23 *90:18 *186:30 0.000144712
24 *90:18 *188:14 0.000632171
25 *90:18 *189:70 0.000195263
26 *90:24 *101:24 0.00206476
27 *30:18 *90:18 0.000137804
28 *40:18 *90:18 0.000401842
29 *67:16 *90:24 0
30 *74:10 *90:18 0.00048004
31 *78:10 *90:18 0.000125685
*RES
1 *2178:X *90:18 47.4709 
2 *90:18 *90:24 12.5242 
3 *90:24 *238:DIODE 14.0768 
4 *90:24 *2182:A 16.5589 
*END

*D_NET *91 0.00771875
*CONN
*I *2182:B I *D sky130_fd_sc_hd__or4_2
*I *2179:Y O *D sky130_fd_sc_hd__nand4_1
*CAP
1 *2182:B 0.00117942
2 *2179:Y 0.000484639
3 *91:14 0.00166406
4 *2182:B *356:DIODE 5.33005e-05
5 *2182:B *2182:C 7.32884e-05
6 *2182:B *2232:A 0.0004358
7 *2182:B *104:20 0.00163167
8 *2182:B *109:12 0.000351492
9 *2182:B *129:39 0.000393218
10 *2182:B *130:20 0.00022367
11 *91:14 *2179:A 6.58289e-05
12 *91:14 *2208:A 0
13 *91:14 *111:10 0.000364955
14 *2370:RESET_B *91:14 0.000797399
*RES
1 *2179:Y *91:14 33.3536 
2 *91:14 *2182:B 39.8357 
*END

*D_NET *92 0.0094809
*CONN
*I *2182:C I *D sky130_fd_sc_hd__or4_2
*I *2180:X O *D sky130_fd_sc_hd__or4_1
*CAP
1 *2182:C 6.73795e-05
2 *2180:X 0
3 *92:8 0.00166655
4 *92:6 0.00159917
5 *2182:C *2182:D 2.85321e-05
6 *2182:C *2232:A 5.49995e-05
7 *2182:C *109:12 3.51214e-05
8 *2182:C *129:22 5.80833e-05
9 *92:8 *2299:A2 3.37033e-05
10 *92:8 *100:125 0
11 *92:8 *119:87 0
12 *92:8 *166:66 3.41848e-05
13 *92:8 *166:90 0.000194214
14 *92:8 *182:26 8.4766e-05
15 *92:8 *191:82 4.27842e-06
16 *92:8 *196:93 0.000685447
17 *92:8 *196:117 0.00156751
18 *92:8 *203:74 0.000718585
19 *92:8 *203:96 0.0016309
20 *92:8 *203:118 0.000944179
21 *2182:B *2182:C 7.32884e-05
*RES
1 *2180:X *92:6 13.8 
2 *92:6 *92:8 48.0893 
3 *92:8 *2182:C 16.1214 
*END

*D_NET *93 0.00714568
*CONN
*I *2182:D I *D sky130_fd_sc_hd__or4_2
*I *2181:X O *D sky130_fd_sc_hd__or4b_1
*CAP
1 *2182:D 0.000380704
2 *2181:X 0.00122411
3 *93:10 0.00160481
4 *2182:D *109:12 0.00171274
5 *2182:D *130:20 0.000496625
6 *2182:D *212:104 0.000472206
7 *93:10 *118:28 0
8 *93:10 *144:37 0
9 *93:10 *172:188 0.000357381
10 *93:10 *197:66 0.000500189
11 *93:10 *210:12 0
12 *2182:A *2182:D 0.000219366
13 *2182:C *2182:D 2.85321e-05
14 *19:12 *93:10 0.000149023
*RES
1 *2181:X *93:10 42.4071 
2 *93:10 *2182:D 25.8536 
*END

*D_NET *94 0.0260822
*CONN
*I *2188:A I *D sky130_fd_sc_hd__or4_4
*I *326:DIODE I *D sky130_fd_sc_hd__diode_2
*I *2220:A I *D sky130_fd_sc_hd__or3_4
*I *256:DIODE I *D sky130_fd_sc_hd__diode_2
*I *2182:X O *D sky130_fd_sc_hd__or4_2
*CAP
1 *2188:A 0
2 *326:DIODE 0
3 *2220:A 0.000127843
4 *256:DIODE 4.36033e-05
5 *2182:X 0.000960995
6 *94:43 0.000867699
7 *94:41 0.000934489
8 *94:26 0.00121464
9 *94:20 0.00332597
10 *94:16 0.00331056
11 *256:DIODE *121:20 5.33005e-05
12 *2220:A *2220:B 0.000227912
13 *2220:A *121:20 4.99047e-05
14 *2220:A *218:14 5.52302e-05
15 *94:16 *130:20 0.000453932
16 *94:16 *176:63 1.50223e-05
17 *94:20 *2346:CLK 2.69651e-05
18 *94:20 *95:24 0
19 *94:20 *117:26 3.94388e-05
20 *94:20 *171:238 2.33986e-05
21 *94:20 *171:252 0
22 *94:20 *172:206 0.000101173
23 *94:20 *172:208 7.49777e-05
24 *94:20 *172:214 0.000542918
25 *94:20 *176:30 0
26 *94:20 *176:52 1.09232e-05
27 *94:20 *184:20 1.26871e-05
28 *94:20 *192:61 0
29 *94:20 *202:24 0.000812214
30 *94:26 *2278:A2 3.57315e-05
31 *94:26 *95:24 0
32 *94:26 *121:20 4.08637e-05
33 *94:26 *159:24 4.87953e-05
34 *94:26 *171:86 0.00150072
35 *94:26 *171:92 0.000543835
36 *94:41 *2188:B 0.000298875
37 *94:41 *2188:C 0.000524356
38 *94:41 *2278:A2 0.000142856
39 *94:41 *98:10 5.15925e-05
40 *94:41 *121:12 3.06511e-05
41 *94:41 *121:20 2.14658e-05
42 *94:43 *2188:B 5.71472e-05
43 *94:43 *2188:C 0.00011858
44 *94:43 *2188:D 0.000521413
45 *94:43 *2220:B 0.00183239
46 *94:43 *100:10 0.000824403
47 *94:43 *121:20 0.000314191
48 *94:43 *218:14 0.00223074
49 *2348:RESET_B *94:16 0
50 *2353:RESET_B *94:20 0.000511033
51 *2368:RESET_B *94:20 0.00010288
52 *21:24 *94:20 0.000745194
53 *21:24 *94:26 0.00209215
54 *21:24 *94:41 0
55 *21:36 *94:16 0
56 *21:36 *94:20 0
57 *55:14 *94:41 0
58 *59:16 *94:16 4.64488e-06
59 *66:24 *94:16 2.10888e-05
60 *66:24 *94:20 7.05046e-05
61 *66:32 *94:16 0.000110272
*RES
1 *2182:X *94:16 28.3179 
2 *94:16 *94:20 49.3839 
3 *94:20 *94:26 34.6875 
4 *94:26 *256:DIODE 9.83571 
5 *94:26 *94:41 15.5 
6 *94:41 *94:43 33.3929 
7 *94:43 *2220:A 12.7286 
8 *94:43 *326:DIODE 9.3 
9 *94:41 *2188:A 9.3 
*END

*D_NET *95 0.0193661
*CONN
*I *2185:B I *D sky130_fd_sc_hd__or3_1
*I *246:DIODE I *D sky130_fd_sc_hd__diode_2
*I *324:DIODE I *D sky130_fd_sc_hd__diode_2
*I *2219:C I *D sky130_fd_sc_hd__or4_1
*I *2183:X O *D sky130_fd_sc_hd__or4_2
*CAP
1 *2185:B 0.000197783
2 *246:DIODE 0
3 *324:DIODE 8.60147e-05
4 *2219:C 0
5 *2183:X 0
6 *95:46 0.00184229
7 *95:24 0.00219925
8 *95:18 0.00322596
9 *95:4 0.00275724
10 *324:DIODE *323:DIODE 9.06504e-05
11 *324:DIODE *2219:D 1.35465e-05
12 *2185:B *2185:A 0.000188586
13 *2185:B *203:120 0.000172309
14 *95:18 *564:DIODE 9.17635e-05
15 *95:18 *2183:A 5.9766e-05
16 *95:18 *2183:B 9.15842e-06
17 *95:18 *2346:CLK 0
18 *95:18 *163:24 0.000171375
19 *95:18 *171:238 0
20 *95:18 *171:252 0.000240549
21 *95:18 *172:188 0.000231328
22 *95:18 *176:30 0.000744339
23 *95:18 *184:114 7.55142e-05
24 *95:18 *206:88 0.00198004
25 *95:24 *322:DIODE 0.000155236
26 *95:24 *323:DIODE 4.23643e-05
27 *95:24 *2215:A1 0
28 *95:24 *2215:A2 0
29 *95:24 *2219:D 2.82509e-05
30 *95:24 *96:20 0.000140907
31 *95:24 *108:20 0.000107653
32 *95:24 *117:26 0
33 *95:24 *121:12 0.000225988
34 *95:24 *146:16 0.000663135
35 *95:24 *171:86 0
36 *95:24 *172:62 4.33438e-05
37 *95:24 *190:16 0
38 *95:24 *192:61 0.000352761
39 *95:24 *206:88 2.28135e-05
40 *95:24 *212:32 4.48647e-05
41 *95:46 *2183:A 4.58194e-05
42 *95:46 *134:173 0.00074031
43 *95:46 *141:114 0
44 *95:46 *184:114 0.000558157
45 *95:46 *203:118 0
46 *95:46 *203:120 0.000601578
47 *2351:RESET_B *95:18 0.000141053
48 *21:36 *95:18 0.000232017
49 *47:22 *95:18 4.24111e-05
50 *51:12 *95:24 0
51 *51:22 *95:24 0.000800033
52 *89:12 *95:24 0
53 *94:20 *95:24 0
54 *94:26 *95:24 0
*RES
1 *2183:X *95:4 9.3 
2 *95:4 *95:18 47.0446 
3 *95:18 *95:24 47.0089 
4 *95:24 *2219:C 9.3 
5 *95:24 *324:DIODE 11.0679 
6 *95:4 *95:46 37.875 
7 *95:46 *246:DIODE 9.3 
8 *95:46 *2185:B 13.5679 
*END

*D_NET *96 0.0236868
*CONN
*I *2185:C I *D sky130_fd_sc_hd__or3_1
*I *247:DIODE I *D sky130_fd_sc_hd__diode_2
*I *325:DIODE I *D sky130_fd_sc_hd__diode_2
*I *2219:D I *D sky130_fd_sc_hd__or4_1
*I *2184:X O *D sky130_fd_sc_hd__or3_2
*CAP
1 *2185:C 0.000185122
2 *247:DIODE 0
3 *325:DIODE 0
4 *2219:D 0.000365042
5 *2184:X 0.000752155
6 *96:46 0.00244195
7 *96:20 0.00144535
8 *96:14 0.00408929
9 *2185:C *2185:A 5.71472e-05
10 *2185:C *97:24 5.80706e-06
11 *2185:C *169:254 4.23086e-05
12 *2219:D *322:DIODE 3.04274e-05
13 *2219:D *210:101 1.89507e-06
14 *2219:D *212:32 1.57345e-05
15 *96:14 *242:DIODE 9.60939e-05
16 *96:14 *2234:B 3.04394e-05
17 *96:14 *2330:A 9.2355e-05
18 *96:14 *130:52 0.00124161
19 *96:14 *202:44 0.000144044
20 *96:14 *204:108 0.00157842
21 *96:20 *322:DIODE 0.000140907
22 *96:20 *121:12 0.000193196
23 *96:20 *159:40 0.000771378
24 *96:20 *166:10 0.000182953
25 *96:20 *166:64 0.00015446
26 *96:20 *169:44 0.000131024
27 *96:20 *174:16 0.000352356
28 *96:20 *174:126 0.000394182
29 *96:20 *182:32 0.000114714
30 *96:20 *209:142 0.000188067
31 *96:46 *97:24 8.37642e-05
32 *96:46 *149:32 0.000280954
33 *96:46 *152:36 0.000105095
34 *96:46 *169:241 3.25078e-05
35 *96:46 *169:254 0.000157474
36 *96:46 *171:211 0
37 *96:46 *174:126 0.000168224
38 *96:46 *201:69 0.000704234
39 *96:46 *209:142 0.0002172
40 *96:46 *210:12 0.000449971
41 *96:46 *210:58 0.000353007
42 *324:DIODE *2219:D 1.35465e-05
43 *51:22 *2219:D 1.41505e-05
44 *56:18 *96:46 0.00350224
45 *82:12 *96:46 0.00216452
46 *87:10 *96:46 3.22738e-05
47 *95:24 *2219:D 2.82509e-05
48 *95:24 *96:20 0.000140907
*RES
1 *2184:X *96:14 35.3357 
2 *96:14 *96:20 31.9464 
3 *96:20 *2219:D 22.7107 
4 *96:20 *325:DIODE 9.3 
5 *96:14 *96:46 69.6429 
6 *96:46 *247:DIODE 13.8 
7 *96:46 *2185:C 17.425 
*END

*D_NET *97 0.0213435
*CONN
*I *257:DIODE I *D sky130_fd_sc_hd__diode_2
*I *2188:B I *D sky130_fd_sc_hd__or4_4
*I *2185:X O *D sky130_fd_sc_hd__or3_1
*CAP
1 *257:DIODE 0
2 *2188:B 0.000197413
3 *2185:X 0.00782206
4 *97:24 0.00801947
5 *2188:B *100:10 0.00010096
6 *2188:B *197:20 9.65182e-05
7 *2188:B *220:59 2.80255e-05
8 *97:24 *101:24 0
9 *97:24 *118:28 0.000140349
10 *97:24 *136:50 9.34324e-05
11 *97:24 *138:26 0.00021643
12 *97:24 *144:37 0.000114398
13 *97:24 *149:32 0.00118222
14 *97:24 *171:66 0.000113064
15 *97:24 *171:230 0.000164018
16 *97:24 *197:20 0.000157941
17 *97:24 *197:44 0.000169671
18 *97:24 *198:68 0.00013668
19 *97:24 *210:86 0.000546488
20 *97:24 *220:59 4.36551e-06
21 *2185:C *97:24 5.80706e-06
22 *2379:A *97:24 0.00119011
23 *30:16 *97:24 0
24 *55:14 *97:24 0.000135054
25 *55:20 *97:24 0.000269226
26 *94:41 *2188:B 0.000298875
27 *94:43 *2188:B 5.71472e-05
28 *96:46 *97:24 8.37642e-05
*RES
1 *2185:X *97:24 47.0107 
2 *97:24 *2188:B 18.55 
3 *97:24 *257:DIODE 13.8 
*END

*D_NET *98 0.00719409
*CONN
*I *2188:C I *D sky130_fd_sc_hd__or4_4
*I *2186:X O *D sky130_fd_sc_hd__or4b_1
*CAP
1 *2188:C 0.000115217
2 *2186:X 0.00137458
3 *98:10 0.00148979
4 *2188:C *121:20 0.000627656
5 *98:10 *2186:A 3.97677e-05
6 *98:10 *121:12 0.000449225
7 *98:10 *123:18 0.000795853
8 *98:10 *167:28 0.000237756
9 *98:10 *209:142 0.000936722
10 *55:14 *98:10 0.000283833
11 *60:12 *98:10 0.000149164
12 *94:41 *2188:C 0.000524356
13 *94:41 *98:10 5.15925e-05
14 *94:43 *2188:C 0.00011858
*RES
1 *2186:X *98:10 46.0679 
2 *98:10 *2188:C 19.8402 
*END

*D_NET *99 0.0131702
*CONN
*I *2218:B I *D sky130_fd_sc_hd__or4b_1
*I *2188:D I *D sky130_fd_sc_hd__or4_4
*I *2187:X O *D sky130_fd_sc_hd__or4b_2
*CAP
1 *2218:B 0.000534127
2 *2188:D 0.000155868
3 *2187:X 0.000885513
4 *99:27 0.00150931
5 *99:8 0.00201657
6 *2188:D *121:20 0.000519214
7 *2188:D *122:35 0.000125724
8 *2188:D *182:46 0.00012401
9 *2218:B *149:16 0.000313514
10 *2218:B *209:22 0.000561564
11 *99:8 *254:DIODE 5.52302e-05
12 *99:8 *2187:B 7.48301e-06
13 *99:8 *2187:D_N 2.12087e-05
14 *99:8 *165:10 0.00111736
15 *99:27 *122:35 0.000585342
16 *99:27 *172:62 9.41642e-05
17 *99:27 *181:22 0.00187274
18 *99:27 *182:46 0.000266566
19 *99:27 *201:65 9.60875e-05
20 *27:14 *99:27 0.000573625
21 *70:12 *99:27 8.64727e-05
22 *75:32 *2218:B 0.000554267
23 *75:32 *99:27 0.000572792
24 *94:43 *2188:D 0.000521413
*RES
1 *2187:X *99:8 25.8357 
2 *99:8 *2188:D 20.4964 
3 *99:8 *99:27 40.4286 
4 *99:27 *2218:B 29.7107 
*END

*D_NET *100 0.0418192
*CONN
*I *419:DIODE I *D sky130_fd_sc_hd__diode_2
*I *2208:A I *D sky130_fd_sc_hd__and3_1
*I *296:DIODE I *D sky130_fd_sc_hd__diode_2
*I *2190:B I *D sky130_fd_sc_hd__and2b_1
*I *261:DIODE I *D sky130_fd_sc_hd__diode_2
*I *2189:B I *D sky130_fd_sc_hd__xnor2_1
*I *259:DIODE I *D sky130_fd_sc_hd__diode_2
*I *312:DIODE I *D sky130_fd_sc_hd__diode_2
*I *2214:B1 I *D sky130_fd_sc_hd__o21ai_1
*I *2259:A I *D sky130_fd_sc_hd__and3_1
*I *2251:A I *D sky130_fd_sc_hd__and3_1
*I *400:DIODE I *D sky130_fd_sc_hd__diode_2
*I *2188:X O *D sky130_fd_sc_hd__or4_4
*CAP
1 *419:DIODE 0
2 *2208:A 0.00042927
3 *296:DIODE 0
4 *2190:B 0.000108201
5 *261:DIODE 0
6 *2189:B 0
7 *259:DIODE 0
8 *312:DIODE 0
9 *2214:B1 0
10 *2259:A 0.000228812
11 *2251:A 0.000185576
12 *400:DIODE 4.14974e-05
13 *2188:X 0.00230044
14 *100:149 0.00259357
15 *100:134 0.00228593
16 *100:127 0.000662478
17 *100:125 0.00192124
18 *100:108 0.00135807
19 *100:99 0.00199504
20 *100:84 0.00201038
21 *100:75 0.00129882
22 *100:50 0.00146635
23 *100:46 0.00080311
24 *100:16 0.000357944
25 *100:14 0.00120266
26 *100:10 0.00260904
27 *400:DIODE *143:12 5.47001e-05
28 *2208:A *113:8 0
29 *2251:A *2251:B 6.85998e-05
30 *2251:A *143:12 0.000285026
31 *2251:A *147:26 2.30913e-05
32 *2259:A *134:224 1.39266e-05
33 *2259:A *147:18 0.000151768
34 *2259:A *147:26 6.75203e-05
35 *100:10 *2220:B 0.00112069
36 *100:10 *131:18 0.000287441
37 *100:10 *187:34 0.000114824
38 *100:14 *143:12 0.00043289
39 *100:16 *143:12 0.000178061
40 *100:46 *2259:B 3.31595e-05
41 *100:46 *125:26 0.00209068
42 *100:46 *127:20 0.00019452
43 *100:46 *136:16 0.000999369
44 *100:46 *146:28 0.000136958
45 *100:46 *147:26 5.76558e-05
46 *100:46 *179:142 0.000146998
47 *100:46 *179:170 0.000188761
48 *100:46 *188:42 0.000581399
49 *100:50 *125:24 7.58841e-05
50 *100:50 *134:224 3.54498e-05
51 *100:75 *2214:A1 3.55039e-05
52 *100:75 *2214:A2 0.000196266
53 *100:75 *2326:A 1.39841e-05
54 *100:75 *116:78 0.000387803
55 *100:75 *116:98 0.000221639
56 *100:75 *117:12 6.05161e-06
57 *100:75 *125:24 0.00160336
58 *100:75 *127:20 0.000276612
59 *100:75 *134:224 1.03904e-05
60 *100:75 *147:10 0.000162808
61 *100:75 *147:18 0.000104036
62 *100:75 *192:26 0.000712766
63 *100:75 *192:140 0.000454142
64 *100:84 *2214:A1 2.09236e-05
65 *100:84 *117:12 0.000100142
66 *100:84 *213:103 0.000124245
67 *100:84 *213:118 0.000171913
68 *100:99 *557:DIODE 8.42878e-05
69 *100:99 *2346:CLK 0.000141786
70 *100:99 *117:12 0.000342537
71 *100:99 *210:86 0.000136895
72 *100:99 *213:118 5.50052e-05
73 *100:108 *557:DIODE 0.000184246
74 *100:108 *2189:A 1.59373e-05
75 *100:125 *557:DIODE 0.000134635
76 *100:125 *2189:A 2.84026e-05
77 *100:125 *119:87 0.00132677
78 *100:125 *129:22 0
79 *100:125 *130:20 5.46439e-05
80 *100:125 *134:173 0.00018705
81 *100:125 *208:14 0.0018009
82 *100:127 *129:12 5.74036e-05
83 *100:149 *260:DIODE 0.000141891
84 *2188:B *100:10 0.00010096
85 *2346:RESET_B *100:99 1.77736e-05
86 *26:10 *100:10 0
87 *47:22 *100:99 5.49889e-05
88 *74:8 *100:75 0.000328353
89 *91:14 *2208:A 0
90 *92:8 *100:125 0
91 *94:43 *100:10 0.000824403
*RES
1 *2188:X *100:10 48.0321 
2 *100:10 *100:14 8.73214 
3 *100:14 *100:16 1.76786 
4 *100:16 *400:DIODE 9.83571 
5 *100:16 *2251:A 23.2821 
6 *100:14 *100:46 38.7143 
7 *100:46 *100:50 5.53571 
8 *100:50 *2259:A 16.8179 
9 *100:50 *100:75 41.7857 
10 *100:75 *2214:B1 9.3 
11 *100:75 *100:84 3.42857 
12 *100:84 *312:DIODE 9.3 
13 *100:84 *100:99 24.6429 
14 *100:99 *259:DIODE 9.3 
15 *100:99 *100:108 2.19643 
16 *100:108 *2189:B 9.3 
17 *100:108 *100:125 42.6607 
18 *100:125 *100:127 7.51786 
19 *100:127 *261:DIODE 9.3 
20 *100:127 *100:134 0.428571 
21 *100:134 *2190:B 11.6929 
22 *100:134 *100:149 25.3214 
23 *100:149 *296:DIODE 9.3 
24 *100:149 *2208:A 24.6571 
25 *100:46 *419:DIODE 9.3 
*END

*D_NET *101 0.0234728
*CONN
*I *262:DIODE I *D sky130_fd_sc_hd__diode_2
*I *2191:A I *D sky130_fd_sc_hd__clkbuf_1
*I *2190:X O *D sky130_fd_sc_hd__and2b_1
*CAP
1 *262:DIODE 5.83789e-05
2 *2191:A 0
3 *2190:X 0.00871575
4 *101:26 5.83789e-05
5 *101:24 0.00871575
6 *262:DIODE *174:18 0.000219366
7 *262:DIODE *206:40 0.000221065
8 *101:24 *103:34 3.25422e-05
9 *101:24 *106:34 0.000113898
10 *101:24 *119:42 0.00014833
11 *101:24 *119:185 0
12 *101:24 *122:43 4.09607e-05
13 *101:24 *122:45 0.000706399
14 *101:24 *132:18 1.954e-05
15 *101:24 *136:50 0.000130083
16 *101:24 *138:28 0.000114258
17 *101:24 *145:10 0.000131059
18 *101:24 *149:32 0
19 *101:24 *153:20 1.41091e-05
20 *101:24 *162:8 0.000267735
21 *101:24 *178:97 0.000109321
22 *101:24 *201:69 0.000280954
23 *101:24 *218:34 7.53529e-06
24 *101:24 *218:76 0.000285114
25 *2345:D *101:24 0.000280954
26 *73:16 *101:24 0.0001326
27 *82:18 *101:24 0.000603939
28 *90:24 *101:24 0.00206476
29 *97:24 *101:24 0
*RES
1 *2190:X *101:24 46.4189 
2 *101:24 *101:26 4.5 
3 *101:26 *2191:A 9.3 
4 *101:26 *262:DIODE 11.4786 
*END

*D_NET *102 0.0131622
*CONN
*I *2194:A I *D sky130_fd_sc_hd__and2_1
*I *267:DIODE I *D sky130_fd_sc_hd__diode_2
*I *2192:X O *D sky130_fd_sc_hd__or2_1
*CAP
1 *2194:A 0.000270179
2 *267:DIODE 0
3 *2192:X 0.00140692
4 *102:12 0.000270179
5 *102:10 0.00326535
6 *102:8 0.00467227
7 *2194:A *2194:B 0.000273674
8 *2194:A *103:18 6.48098e-05
9 *102:8 *263:DIODE 0.000136733
10 *102:8 *164:18 0.000610422
11 *102:10 *111:10 0
12 *102:10 *113:8 0.00123712
13 *102:10 *211:14 0
14 *45:12 *102:10 0
15 *80:22 *102:8 0.000954526
*RES
1 *2192:X *102:8 41.8536 
2 *102:8 *102:10 65.0893 
3 *102:10 *102:12 4.5 
4 *102:12 *267:DIODE 9.3 
5 *102:12 *2194:A 14.8 
*END

*D_NET *103 0.0215431
*CONN
*I *2196:B I *D sky130_fd_sc_hd__xnor2_1
*I *271:DIODE I *D sky130_fd_sc_hd__diode_2
*I *268:DIODE I *D sky130_fd_sc_hd__diode_2
*I *2194:B I *D sky130_fd_sc_hd__and2_1
*I *2193:Y O *D sky130_fd_sc_hd__nand2_2
*CAP
1 *2196:B 0.000226357
2 *271:DIODE 0.000120688
3 *268:DIODE 0
4 *2194:B 0.000107929
5 *2193:Y 0.000192697
6 *103:34 0.0021407
7 *103:18 0.00144502
8 *103:14 0.0044033
9 *103:8 0.00146525
10 *2194:B *104:12 3.67252e-05
11 *2196:B *205:94 0
12 *103:8 *2193:A 0.00014886
13 *103:8 *2381:A 5.33005e-05
14 *103:8 *151:92 0.000628003
15 *103:8 *183:12 0.000411592
16 *103:14 *156:65 0.000863156
17 *103:14 *178:74 1.41225e-05
18 *103:14 *181:150 0.000167875
19 *103:14 *181:166 0.000453104
20 *103:14 *181:177 0.000100831
21 *103:14 *181:194 0.000274613
22 *103:14 *183:150 0.000148302
23 *103:14 *192:92 0.000920878
24 *103:18 *106:62 0.00106722
25 *103:34 *470:DIODE 6.30982e-05
26 *103:34 *2225:A1 7.90803e-05
27 *103:34 *119:163 0
28 *103:34 *119:185 0
29 *103:34 *155:14 0
30 *103:34 *179:54 7.79781e-06
31 *103:34 *181:194 0.000115598
32 *103:34 *183:150 0.000878662
33 *103:34 *205:94 0
34 *2194:A *2194:B 0.000273674
35 *2194:A *103:18 6.48098e-05
36 *2365:D *103:34 9.40149e-05
37 *2366:D *103:18 0.000209457
38 *16:8 *103:14 0.0028215
39 *36:26 *103:14 0.000506706
40 *36:30 *103:34 2.01525e-05
41 *37:16 *103:18 0.00098549
42 *42:24 *2196:B 0
43 *42:24 *103:34 0
44 *101:24 *103:34 3.25422e-05
*RES
1 *2193:Y *103:8 20.0857 
2 *103:8 *103:14 42.7857 
3 *103:14 *103:18 30.5 
4 *103:18 *2194:B 12.6214 
5 *103:18 *268:DIODE 9.3 
6 *103:14 *103:34 35.3393 
7 *103:34 *271:DIODE 15.1571 
8 *103:34 *2196:B 17.925 
*END

*D_NET *104 0.0210672
*CONN
*I *269:DIODE I *D sky130_fd_sc_hd__diode_2
*I *2195:A I *D sky130_fd_sc_hd__buf_1
*I *2194:X O *D sky130_fd_sc_hd__and2_1
*CAP
1 *269:DIODE 0
2 *2195:A 6.01321e-05
3 *2194:X 0.0012738
4 *104:36 0.000159898
5 *104:30 0.00308572
6 *104:20 0.00515522
7 *104:12 0.00344307
8 *2195:A *118:22 0.000164152
9 *104:12 *151:22 0
10 *104:20 *204:28 0.000807041
11 *104:30 *2334:A 5.52302e-05
12 *104:30 *170:155 0.000921801
13 *104:30 *171:230 0.000185817
14 *104:36 *193:72 0.000156271
15 *104:36 *214:87 0
16 an[3] *104:12 3.51773e-05
17 *2182:B *104:20 0.00163167
18 *2194:B *104:12 3.67252e-05
19 *49:8 *2195:A 0.000274288
20 *58:12 *104:30 0.00037763
21 *58:16 *104:30 0.00164358
22 *65:6 *104:30 0.00160001
*RES
1 *2194:X *104:12 39.7107 
2 *104:12 *104:20 41.75 
3 *104:20 *104:30 48.1554 
4 *104:30 *104:36 10.0082 
5 *104:36 *2195:A 12.3179 
6 *104:36 *269:DIODE 9.3 
*END

*D_NET *105 0.0135154
*CONN
*I *2198:A I *D sky130_fd_sc_hd__clkbuf_4
*I *2197:X O *D sky130_fd_sc_hd__and4_1
*CAP
1 *2198:A 0
2 *2197:X 0.00110146
3 *105:24 0.00133364
4 *105:12 0.0024351
5 *105:12 *368:DIODE 5.33005e-05
6 *105:12 *2237:B 0.000222499
7 *105:12 *119:42 0
8 *105:12 *122:43 0.000116981
9 *105:12 *166:30 0.000560776
10 *105:12 *181:30 0.000157252
11 *105:12 *181:32 0.000555071
12 *105:12 *181:46 5.59013e-05
13 *105:12 *189:30 0.000556395
14 *105:12 *189:32 5.33005e-05
15 *105:12 *214:22 6.57032e-05
16 *105:12 *214:26 9.90837e-05
17 *105:24 *578:DIODE 5.51406e-05
18 *105:24 *2290:A 0.000193307
19 *105:24 *131:16 7.53309e-05
20 *105:24 *174:92 0.000442882
21 *105:24 *185:84 0.000983671
22 *105:24 *188:14 0.000942504
23 *105:24 *201:48 9.80405e-05
24 *26:18 *105:24 0.000373615
25 *70:12 *105:12 0.00146724
26 *74:10 *105:24 0.000128623
27 *78:10 *105:24 0.000937045
28 *90:18 *105:24 0.00045155
*RES
1 *2197:X *105:12 49.9964 
2 *105:12 *105:24 46.75 
3 *105:24 *2198:A 9.3 
*END

*D_NET *106 0.0469314
*CONN
*I *328:DIODE I *D sky130_fd_sc_hd__diode_2
*I *2221:A2 I *D sky130_fd_sc_hd__a31o_1
*I *2200:A_N I *D sky130_fd_sc_hd__and2b_1
*I *280:DIODE I *D sky130_fd_sc_hd__diode_2
*I *317:DIODE I *D sky130_fd_sc_hd__diode_2
*I *2216:C I *D sky130_fd_sc_hd__and4_1
*I *2203:C I *D sky130_fd_sc_hd__and3_2
*I *286:DIODE I *D sky130_fd_sc_hd__diode_2
*I *2204:A2 I *D sky130_fd_sc_hd__a21oi_1
*I *288:DIODE I *D sky130_fd_sc_hd__diode_2
*I *372:DIODE I *D sky130_fd_sc_hd__diode_2
*I *2238:A I *D sky130_fd_sc_hd__and4_1
*I *2202:B I *D sky130_fd_sc_hd__xor2_1
*I *283:DIODE I *D sky130_fd_sc_hd__diode_2
*I *305:DIODE I *D sky130_fd_sc_hd__diode_2
*I *2212:A I *D sky130_fd_sc_hd__and2_2
*I *2198:X O *D sky130_fd_sc_hd__clkbuf_4
*CAP
1 *328:DIODE 0
2 *2221:A2 0.000249746
3 *2200:A_N 0.000137952
4 *280:DIODE 0
5 *317:DIODE 0
6 *2216:C 0.00010941
7 *2203:C 0
8 *286:DIODE 0.000127942
9 *2204:A2 9.50025e-05
10 *288:DIODE 0
11 *372:DIODE 9.99249e-05
12 *2238:A 0
13 *2202:B 1.71076e-05
14 *283:DIODE 0
15 *305:DIODE 9.66922e-05
16 *2212:A 0
17 *2198:X 7.03212e-05
18 *106:168 0.000439231
19 *106:134 0.00166796
20 *106:110 0.000152278
21 *106:108 0.00260129
22 *106:88 0.00137171
23 *106:68 0.000606271
24 *106:62 0.00266704
25 *106:51 0.00117772
26 *106:38 0.00102355
27 *106:34 0.00276452
28 *106:30 0.00253673
29 *106:14 0.00126983
30 *106:10 0.00282523
31 *106:8 0.000512303
32 *286:DIODE *138:32 9.86486e-06
33 *286:DIODE *209:61 5.49489e-05
34 *286:DIODE *211:96 1.98839e-05
35 *305:DIODE *2212:B 0.000180207
36 *305:DIODE *115:38 4.34677e-05
37 *305:DIODE *116:12 0.000139338
38 *305:DIODE *122:35 4.77002e-05
39 *2200:A_N *182:80 4.00679e-05
40 *2202:B *200:48 2.84109e-05
41 *2204:A2 *110:8 8.07313e-05
42 *2216:C *2216:A 3.34693e-05
43 *2216:C *116:78 3.27461e-05
44 *2221:A2 *2221:A1 1.03233e-05
45 *2221:A2 *169:34 7.72966e-05
46 *2221:A2 *193:50 3.48013e-05
47 *106:10 *144:56 0.000425126
48 *106:10 *158:22 0.000113806
49 *106:10 *191:14 7.15591e-05
50 *106:10 *193:10 0.000284758
51 *106:14 *2256:B 0.000217505
52 *106:14 *116:12 2.83471e-05
53 *106:14 *136:10 0.000115369
54 *106:14 *144:56 0.00157138
55 *106:14 *158:22 0.000183617
56 *106:14 *189:56 0.00126482
57 *106:14 *193:10 0.00144939
58 *106:30 *2297:C 0.000195558
59 *106:30 *181:22 0.000985352
60 *106:30 *182:80 0.000140725
61 *106:34 *178:97 0.000655474
62 *106:34 *181:22 3.04901e-05
63 *106:34 *209:22 0.000483803
64 *106:34 *211:78 0
65 *106:34 *218:76 0.000802528
66 *106:38 *172:178 0.000938815
67 *106:38 *172:206 8.2607e-05
68 *106:51 *172:206 0.000301438
69 *106:51 *212:12 0.000122877
70 *106:62 *2331:A 5.33005e-05
71 *106:62 *200:48 0.00129048
72 *106:68 *127:26 4.36671e-05
73 *106:68 *148:20 0.000148196
74 *106:68 *179:10 0
75 *106:68 *199:112 0.000974735
76 *106:68 *200:48 3.33175e-05
77 *106:68 *204:30 6.14842e-06
78 *106:88 *444:DIODE 0.000189747
79 *106:88 *2270:A 1.75989e-05
80 *106:88 *2287:B 0.000153054
81 *106:88 *127:26 0.000724871
82 *106:88 *141:92 0.000290271
83 *106:88 *151:22 1.7606e-05
84 *106:88 *179:30 0
85 *106:88 *184:144 0.000285513
86 *106:88 *195:132 0.000158483
87 *106:88 *200:78 6.57424e-05
88 *106:88 *200:95 4.56594e-05
89 *106:88 *200:106 8.67957e-05
90 *106:88 *204:28 3.84726e-06
91 *106:108 *109:10 3.75959e-05
92 *106:108 *138:32 7.36469e-05
93 *106:108 *178:97 0.00170887
94 *106:108 *211:78 0
95 *106:108 *211:96 0
96 *106:110 *138:32 2.85234e-05
97 *106:134 *384:DIODE 0.000186669
98 *106:134 *385:DIODE 0.000140933
99 *106:134 *169:228 0.000526819
100 *106:134 *171:180 0.000210302
101 *106:134 *171:198 0.000111372
102 *106:134 *178:97 0
103 *106:134 *209:105 8.19781e-05
104 *106:134 *211:96 1.6806e-05
105 *106:134 *213:118 0
106 *106:134 *213:122 0.000604321
107 *106:168 *2221:A1 5.37664e-05
108 *106:168 *191:14 0.00018197
109 *106:168 *193:10 0.000109277
110 *106:168 *193:50 5.09797e-05
111 *2348:D *106:134 0.000120505
112 *2366:D *106:68 5.57647e-05
113 *2366:D *106:88 1.48252e-05
114 *21:24 *106:51 0.000122877
115 *26:18 *106:8 9.71197e-05
116 *33:12 *106:14 0.000218037
117 *34:8 *106:68 0.000148465
118 *37:12 *2202:B 5.33005e-05
119 *37:12 *106:62 0.00177982
120 *37:16 *106:62 0.000124988
121 *57:12 *106:68 7.15591e-05
122 *65:12 *106:88 0
123 *67:16 *2216:C 0
124 *75:32 *106:34 0
125 *82:18 *106:34 0.000311762
126 *101:24 *106:34 0.000113898
127 *103:18 *106:62 0.00106722
*RES
1 *2198:X *106:8 14.7464 
2 *106:8 *106:10 7.41071 
3 *106:10 *106:14 45.3036 
4 *106:14 *2212:A 9.3 
5 *106:14 *305:DIODE 12.3 
6 *106:10 *106:30 22.2857 
7 *106:30 *106:34 31.3393 
8 *106:34 *106:38 14.4821 
9 *106:38 *283:DIODE 9.3 
10 *106:38 *106:51 13.6429 
11 *106:51 *2202:B 9.83571 
12 *106:51 *106:62 34.6071 
13 *106:62 *106:68 19.4286 
14 *106:68 *2238:A 9.3 
15 *106:68 *372:DIODE 10.6571 
16 *106:62 *106:88 33.9286 
17 *106:88 *288:DIODE 9.3 
18 *106:88 *2204:A2 11.3893 
19 *106:34 *106:108 28.1429 
20 *106:108 *106:110 0.535714 
21 *106:110 *286:DIODE 11.0857 
22 *106:110 *2203:C 9.3 
23 *106:108 *106:134 41.6071 
24 *106:134 *2216:C 20.2464 
25 *106:134 *317:DIODE 9.3 
26 *106:30 *280:DIODE 9.3 
27 *106:30 *2200:A_N 11.0857 
28 *106:8 *106:168 9.48214 
29 *106:168 *2221:A2 21.8357 
30 *106:168 *328:DIODE 9.3 
*END

*D_NET *107 0.0133119
*CONN
*I *2200:B I *D sky130_fd_sc_hd__and2b_1
*I *2199:X O *D sky130_fd_sc_hd__a31o_1
*CAP
1 *2200:B 0.000645869
2 *2199:X 0.000143784
3 *107:10 0.002292
4 *107:8 0.00178992
5 *2200:B *182:80 0.000389736
6 *107:8 *179:106 0.000230568
7 *107:10 *2186:B 0.000192141
8 *107:10 *2223:B 0.00101958
9 *107:10 *151:92 0.00185019
10 *107:10 *173:18 0.000121549
11 *107:10 *175:33 5.85223e-05
12 *107:10 *183:101 0
13 *2368:D *107:10 0.000609612
14 *2376:D *2200:B 0.00147479
15 *2376:RESET_B *2200:B 0.000741544
16 *36:26 *107:10 0
17 *50:12 *107:10 0.00173394
18 *51:22 *107:10 0
19 *89:12 *107:10 1.81709e-05
*RES
1 *2199:X *107:8 15.9786 
2 *107:8 *107:10 45.9643 
3 *107:10 *2200:B 31.9964 
*END

*D_NET *108 0.0154139
*CONN
*I *2201:A I *D sky130_fd_sc_hd__buf_1
*I *281:DIODE I *D sky130_fd_sc_hd__diode_2
*I *2200:X O *D sky130_fd_sc_hd__and2b_1
*CAP
1 *2201:A 0.000119395
2 *281:DIODE 0
3 *2200:X 0.00334713
4 *108:30 0.000139351
5 *108:26 0.00169756
6 *108:20 0.00502474
7 *108:20 *151:55 0
8 *108:20 *154:10 6.77187e-05
9 *108:20 *182:80 9.30482e-05
10 *108:26 *2233:B1_N 9.35794e-06
11 *108:26 *128:20 0.000184522
12 *108:26 *187:12 0.00187283
13 *108:26 *187:16 0.000400289
14 *108:26 *220:8 0
15 *2354:D *108:26 6.04075e-05
16 *2376:RESET_B *108:20 0.000510144
17 *45:8 *2201:A 8.62591e-05
18 *45:8 *108:30 5.49544e-05
19 *45:12 *108:26 0.00163858
20 *95:24 *108:20 0.000107653
*RES
1 *2200:X *108:20 44.0745 
2 *108:20 *108:26 47.4643 
3 *108:26 *108:30 5.03571 
4 *108:30 *281:DIODE 9.3 
5 *108:30 *2201:A 11.925 
*END

*D_NET *109 0.0269905
*CONN
*I *2207:B I *D sky130_fd_sc_hd__nand2_1
*I *295:DIODE I *D sky130_fd_sc_hd__diode_2
*I *290:DIODE I *D sky130_fd_sc_hd__diode_2
*I *2205:A I *D sky130_fd_sc_hd__nor2_1
*I *2206:B I *D sky130_fd_sc_hd__or2_1
*I *293:DIODE I *D sky130_fd_sc_hd__diode_2
*I *2203:X O *D sky130_fd_sc_hd__and3_2
*CAP
1 *2207:B 0.000157915
2 *295:DIODE 0
3 *290:DIODE 0.000111775
4 *2205:A 3.64069e-05
5 *2206:B 5.40981e-05
6 *293:DIODE 4.57119e-05
7 *2203:X 4.36929e-05
8 *109:62 0.000157915
9 *109:46 0.000536378
10 *109:28 0.000787738
11 *109:22 0.0029013
12 *109:20 0.00197113
13 *109:16 0.000438451
14 *109:12 0.00406979
15 *109:10 0.00382099
16 *2207:B *192:126 7.67241e-05
17 *109:10 *211:96 2.29031e-05
18 *109:12 *129:22 9.67754e-05
19 *109:12 *129:39 0.000572131
20 *109:12 *212:104 0.000588677
21 *109:16 *112:10 0.000200275
22 *109:16 *177:170 0
23 *109:16 *192:126 0
24 *109:20 *177:170 0
25 *109:20 *192:126 0
26 *109:22 *2230:B 0.000157446
27 *109:22 *126:12 3.0089e-05
28 *109:22 *126:40 0.000241129
29 *109:22 *170:92 0.000714735
30 *109:22 *170:100 0.00070679
31 *109:22 *170:113 3.34687e-05
32 *109:22 *177:170 0
33 *109:22 *185:30 0.00192771
34 *109:22 *185:56 3.92854e-05
35 *109:22 *189:16 0.000911206
36 *109:22 *192:126 0
37 *109:28 *126:12 0.000297864
38 *109:28 *136:50 0
39 *109:28 *170:12 5.35516e-05
40 *109:28 *170:34 0.000559974
41 *109:28 *170:92 0.000249158
42 *2182:B *109:12 0.000351492
43 *2182:C *109:12 3.51214e-05
44 *2182:D *109:12 0.00171274
45 *2356:D *109:22 0.000214349
46 *2362:D *109:22 0.000225307
47 *26:38 *109:22 7.83659e-05
48 *28:20 *109:22 0.000698574
49 *28:20 *109:28 0.000313721
50 *47:8 *109:46 0.00052536
51 *54:12 *109:28 0
52 *81:8 *2207:B 0.000184745
53 *106:108 *109:10 3.75959e-05
*RES
1 *2203:X *109:10 19.3357 
2 *109:10 *109:12 50.6429 
3 *109:12 *109:16 11 
4 *109:16 *109:20 2.11607 
5 *109:20 *109:22 59.3839 
6 *109:22 *109:28 23.0714 
7 *109:28 *293:DIODE 9.83571 
8 *109:28 *2206:B 10.3357 
9 *109:22 *109:46 9.96429 
10 *109:46 *2205:A 10.0321 
11 *109:46 *290:DIODE 10.6571 
12 *109:16 *109:62 4.5 
13 *109:62 *295:DIODE 9.3 
14 *109:62 *2207:B 21.1036 
*END

*D_NET *110 0.0149916
*CONN
*I *291:DIODE I *D sky130_fd_sc_hd__diode_2
*I *2205:B I *D sky130_fd_sc_hd__nor2_1
*I *2204:Y O *D sky130_fd_sc_hd__a21oi_1
*CAP
1 *291:DIODE 0
2 *2205:B 0.000113235
3 *2204:Y 0.000393737
4 *110:14 0.000548377
5 *110:10 0.00247429
6 *110:8 0.00243289
7 *110:8 *2204:A1 2.3623e-05
8 *110:8 *2204:B1 7.20217e-06
9 *110:10 *170:92 0
10 *110:10 *170:121 0.000538657
11 *110:10 *175:185 0.000177948
12 *110:10 *175:242 0.000161512
13 *110:10 *177:170 0.000515874
14 *110:10 *186:117 0
15 *110:10 *199:74 0.000499221
16 *110:10 *199:76 7.22594e-05
17 *110:10 *199:82 0.00026695
18 *110:14 *189:22 0.000397471
19 *2204:A2 *110:8 8.07313e-05
20 *2366:RESET_B *110:10 0.000958897
21 *28:20 *110:10 0.00011089
22 *41:24 *110:10 0.0042866
23 *41:28 *110:10 0.000697912
24 *47:8 *2205:B 0.000185403
25 *47:8 *110:14 4.79616e-05
*RES
1 *2204:Y *110:8 20.0857 
2 *110:8 *110:10 72.6786 
3 *110:10 *110:14 10.375 
4 *110:14 *2205:B 12.1036 
5 *110:14 *291:DIODE 9.3 
*END

*D_NET *111 0.0134412
*CONN
*I *2208:B I *D sky130_fd_sc_hd__and3_1
*I *297:DIODE I *D sky130_fd_sc_hd__diode_2
*I *2206:X O *D sky130_fd_sc_hd__or2_1
*CAP
1 *2208:B 0.000112591
2 *297:DIODE 0
3 *2206:X 0.000278123
4 *111:14 0.000155173
5 *111:10 0.00351121
6 *111:8 0.00374676
7 *2208:B *2208:C 0.000109159
8 *111:8 *2206:A 5.41494e-05
9 *111:10 *2253:C 0.000143278
10 *111:10 *113:8 0.00139447
11 *111:10 *134:141 0.000200413
12 *111:10 *184:155 0.000195555
13 *111:10 *184:161 0.00228125
14 *111:10 *211:10 0
15 *111:10 *211:14 0
16 *111:10 *211:60 0
17 *111:14 *2208:C 1.39841e-05
18 *2370:RESET_B *111:10 0.00019379
19 *58:18 *111:10 0.000398822
20 *67:26 *111:10 0.000287566
21 *91:14 *111:10 0.000364955
22 *102:10 *111:10 0
*RES
1 *2206:X *111:8 17.2107 
2 *111:8 *111:10 88.4643 
3 *111:10 *111:14 5.03571 
4 *111:14 *297:DIODE 9.3 
5 *111:14 *2208:B 11.925 
*END

*D_NET *112 0.0189907
*CONN
*I *2208:C I *D sky130_fd_sc_hd__and3_1
*I *298:DIODE I *D sky130_fd_sc_hd__diode_2
*I *308:DIODE I *D sky130_fd_sc_hd__diode_2
*I *2213:A2 I *D sky130_fd_sc_hd__a21oi_1
*I *2207:Y O *D sky130_fd_sc_hd__nand2_1
*CAP
1 *2208:C 0.000210774
2 *298:DIODE 0
3 *308:DIODE 0
4 *2213:A2 0.000224978
5 *2207:Y 0.00032675
6 *112:44 0.000449063
7 *112:24 0.00138797
8 *112:12 0.00389555
9 *112:10 0.0032976
10 *2213:A2 *2213:A1 0
11 *112:10 *177:170 0
12 *112:10 *192:126 0.00022317
13 *112:12 *2225:A1 2.59355e-05
14 *112:12 *2225:A2 2.58821e-05
15 *112:12 *2225:B1 0.000343585
16 *112:12 *2358:CLK 0.00018077
17 *112:12 *176:102 0.000129515
18 *112:12 *184:114 0.000913805
19 *112:12 *184:121 0.000230475
20 *112:12 *184:144 0.00108937
21 *112:12 *185:80 0.0040816
22 *112:12 *185:114 3.8274e-05
23 *112:12 *209:111 0.00018969
24 *112:24 *307:DIODE 5.14129e-05
25 *112:24 *352:DIODE 5.65955e-05
26 *112:24 *2231:B 5.33005e-05
27 *112:24 *115:112 0.00017727
28 *112:24 *184:38 0.000136676
29 *112:24 *191:8 0.000349598
30 *2208:B *2208:C 0.000109159
31 *2358:D *112:12 0.000353079
32 *28:28 *112:12 0.00022459
33 *109:16 *112:10 0.000200275
34 *111:14 *2208:C 1.39841e-05
*RES
1 *2207:Y *112:10 26.925 
2 *112:10 *112:12 65.4286 
3 *112:12 *112:24 18.0893 
4 *112:24 *2213:A2 22.2107 
5 *112:24 *308:DIODE 9.3 
6 *112:10 *112:44 3.41071 
7 *112:44 *298:DIODE 9.3 
8 *112:44 *2208:C 13.6571 
*END

*D_NET *113 0.024313
*CONN
*I *2209:A I *D sky130_fd_sc_hd__buf_1
*I *299:DIODE I *D sky130_fd_sc_hd__diode_2
*I *2208:X O *D sky130_fd_sc_hd__and3_1
*CAP
1 *2209:A 0
2 *299:DIODE 2.5638e-05
3 *2208:X 0
4 *113:32 0.000467891
5 *113:30 0.00209859
6 *113:18 0.0046003
7 *113:8 0.00502452
8 *113:6 0.00208055
9 *299:DIODE *2242:C 5.33005e-05
10 *299:DIODE *169:40 6.05161e-06
11 *113:8 *2253:C 0.000272665
12 *113:8 *134:141 0.000104227
13 *113:8 *144:16 7.83659e-05
14 *113:8 *151:22 0
15 *113:18 *117:26 5.33005e-05
16 *113:18 *202:62 3.59062e-05
17 *113:18 *211:8 0.000136039
18 *113:30 *2215:A2 9.58126e-05
19 *113:30 *2345:CLK 0.000110091
20 *113:30 *116:48 0.000767442
21 *113:30 *116:50 0.000206465
22 *113:30 *117:26 0.000243693
23 *113:30 *174:139 1.98839e-05
24 *113:30 *174:156 0.000199635
25 *113:30 *184:54 0.000308592
26 *113:30 *186:30 0.00029657
27 *113:30 *202:44 0.000298483
28 *113:30 *202:62 0.000691955
29 *113:32 *2184:C 0.000179469
30 *113:32 *2242:A 5.71472e-05
31 *113:32 *2242:C 0.000304394
32 *113:32 *169:40 0.000763405
33 *113:32 *204:112 0.0001254
34 *2208:A *113:8 0
35 *2345:RESET_B *113:30 3.61629e-06
36 *2347:D *113:18 0.000893777
37 *39:24 *113:18 0.000107125
38 *48:8 *113:32 0.000425276
39 *80:16 *113:18 0.000545855
40 *102:10 *113:8 0.00123712
41 *111:10 *113:8 0.00139447
*RES
1 *2208:X *113:6 13.8 
2 *113:6 *113:8 56.8929 
3 *113:8 *113:18 41.6429 
4 *113:18 *113:30 39.9286 
5 *113:30 *113:32 14.5 
6 *113:32 *299:DIODE 9.83571 
7 *113:32 *2209:A 9.3 
*END

*D_NET *114 0.0133233
*CONN
*I *2213:A1 I *D sky130_fd_sc_hd__a21oi_1
*I *307:DIODE I *D sky130_fd_sc_hd__diode_2
*I *2210:Y O *D sky130_fd_sc_hd__inv_2
*CAP
1 *2213:A1 0.000260379
2 *307:DIODE 7.29913e-05
3 *2210:Y 0.0017936
4 *114:10 0.00274069
5 *114:8 0.00240732
6 *114:6 0.0017936
7 *2213:A1 *2213:B1 5.52238e-05
8 *114:6 *119:38 0.000343884
9 *114:6 *141:40 0.00130769
10 *114:6 *186:58 0.000473926
11 *114:6 *191:40 0.000912434
12 *114:6 *191:74 0.000153008
13 *114:6 *195:42 0.00030868
14 *114:10 *2268:B 3.17163e-05
15 *114:10 *140:14 0
16 *2213:A2 *2213:A1 0
17 *37:10 *114:10 0.000616721
18 *67:16 *2213:A1 0
19 *67:16 *114:10 0
20 *112:24 *307:DIODE 5.14129e-05
*RES
1 *2210:Y *114:6 49.2643 
2 *114:6 *114:8 4.5 
3 *114:8 *114:10 48.0893 
4 *114:10 *307:DIODE 14.7464 
5 *114:10 *2213:A1 17.7107 
*END

*D_NET *115 0.0359509
*CONN
*I *2216:D I *D sky130_fd_sc_hd__and4_1
*I *318:DIODE I *D sky130_fd_sc_hd__diode_2
*I *373:DIODE I *D sky130_fd_sc_hd__diode_2
*I *2238:B I *D sky130_fd_sc_hd__and4_1
*I *306:DIODE I *D sky130_fd_sc_hd__diode_2
*I *2212:B I *D sky130_fd_sc_hd__and2_2
*I *329:DIODE I *D sky130_fd_sc_hd__diode_2
*I *2221:A3 I *D sky130_fd_sc_hd__a31o_1
*I *2211:X O *D sky130_fd_sc_hd__and4_2
*CAP
1 *2216:D 0.000107919
2 *318:DIODE 0
3 *373:DIODE 2.56776e-05
4 *2238:B 0.000221877
5 *306:DIODE 0
6 *2212:B 6.23943e-05
7 *329:DIODE 0
8 *2221:A3 9.92984e-05
9 *2211:X 0
10 *115:112 0.000988234
11 *115:70 0.00246219
12 *115:60 0.00428996
13 *115:38 7.0729e-05
14 *115:34 0.00159904
15 *115:32 0.00374025
16 *115:14 0.00148231
17 *115:6 0.00218911
18 *373:DIODE *2392:A 4.33899e-05
19 *2212:B *116:12 4.51234e-05
20 *2212:B *122:35 0.00026546
21 *2216:D *116:84 1.31194e-05
22 *2216:D *118:22 6.88166e-05
23 *2221:A3 *2221:A1 0.000208069
24 *2221:A3 *123:8 9.23451e-05
25 *2238:B *466:DIODE 0
26 *2238:B *2238:C 0.000267731
27 *2238:B *128:20 0.000169804
28 *2238:B *133:16 5.7836e-06
29 *2238:B *204:45 0.000226867
30 *115:14 *116:72 0.000393852
31 *115:14 *172:133 0.000315887
32 *115:14 *184:36 0.000154417
33 *115:14 *191:14 0.00286708
34 *115:14 *193:72 7.07116e-05
35 *115:32 *2221:A1 8.27532e-05
36 *115:32 *116:72 6.61649e-05
37 *115:32 *123:8 4.58194e-05
38 *115:32 *214:38 1.55485e-05
39 *115:32 *214:53 1.76569e-05
40 *115:34 *116:12 0.000449705
41 *115:34 *116:14 0.000386596
42 *115:34 *116:72 0.0012835
43 *115:34 *158:22 0.000283592
44 *115:34 *190:52 5.59013e-05
45 *115:34 *190:63 0.00126877
46 *115:34 *198:44 0.000402602
47 *115:34 *214:38 0.00121074
48 *115:34 *219:16 0.000226493
49 *115:38 *122:35 5.52238e-05
50 *115:60 *2221:A1 6.42095e-05
51 *115:60 *117:26 0.000118545
52 *115:60 *123:18 0.000118545
53 *115:60 *141:26 0.00198841
54 *115:60 *191:52 0.000193849
55 *115:60 *192:38 0.000259542
56 *115:70 *2280:D 8.59075e-05
57 *115:70 *2281:B 0.000322856
58 *115:70 *2392:A 0.000438142
59 *115:70 *154:10 6.04551e-05
60 *115:70 *156:140 0.000140933
61 *115:70 *161:10 1.17968e-05
62 *115:70 *180:82 0.000135028
63 *115:70 *204:57 0.000243384
64 *115:70 *215:10 0.0016807
65 *115:112 *2231:B 5.33005e-05
66 *115:112 *2231:C 0.000357952
67 *115:112 *191:8 0.000269434
68 *115:112 *191:14 0.000297388
69 *115:112 *193:72 0.000194835
70 *305:DIODE *2212:B 0.000180207
71 *305:DIODE *115:38 4.34677e-05
72 *554:DIODE *115:70 9.25014e-06
73 *18:10 *115:14 0
74 *31:14 *115:112 2.6949e-05
75 *67:16 *115:112 8.00806e-05
76 *74:10 *115:34 0
77 *112:24 *115:112 0.00017727
*RES
1 *2211:X *115:6 13.8 
2 *115:6 *115:14 42.3214 
3 *115:14 *2221:A3 11.8893 
4 *115:14 *329:DIODE 9.3 
5 *115:14 *115:32 6.48214 
6 *115:32 *115:34 50.2143 
7 *115:34 *115:38 5.03571 
8 *115:38 *2212:B 11.8893 
9 *115:38 *306:DIODE 9.3 
10 *115:32 *115:60 41.5536 
11 *115:60 *115:70 40.8571 
12 *115:70 *2238:B 23.9786 
13 *115:70 *373:DIODE 9.83571 
14 *115:6 *115:112 31.4286 
15 *115:112 *318:DIODE 9.3 
16 *115:112 *2216:D 10.6571 
*END

*D_NET *116 0.0282714
*CONN
*I *311:DIODE I *D sky130_fd_sc_hd__diode_2
*I *2214:A2 I *D sky130_fd_sc_hd__o21ai_1
*I *309:DIODE I *D sky130_fd_sc_hd__diode_2
*I *2213:B1 I *D sky130_fd_sc_hd__a21oi_1
*I *314:DIODE I *D sky130_fd_sc_hd__diode_2
*I *2215:A2 I *D sky130_fd_sc_hd__a21oi_1
*I *2212:X O *D sky130_fd_sc_hd__and2_2
*CAP
1 *311:DIODE 0
2 *2214:A2 9.71441e-05
3 *309:DIODE 0
4 *2213:B1 7.40596e-05
5 *314:DIODE 0
6 *2215:A2 6.4764e-05
7 *2212:X 0.00113568
8 *116:98 0.000469048
9 *116:84 0.000238136
10 *116:78 0.0023921
11 *116:72 0.00351614
12 *116:50 0.000904227
13 *116:48 0.00250666
14 *116:14 0.00273183
15 *116:12 0.0012841
16 *2214:A2 *2214:A1 7.02438e-05
17 *2215:A2 *2215:A1 5.25337e-05
18 *2215:A2 *117:26 9.41642e-05
19 *116:12 *2256:B 0.000106903
20 *116:12 *122:35 3.09896e-05
21 *116:12 *144:56 0.00034321
22 *116:12 *189:56 0.000651076
23 *116:12 *190:52 5.7616e-05
24 *116:12 *190:63 0.00125836
25 *116:14 *2242:A 0.00010922
26 *116:14 *144:56 1.68546e-05
27 *116:14 *191:16 5.71727e-05
28 *116:48 *2234:B 8.95742e-06
29 *116:48 *2269:A 1.47972e-05
30 *116:48 *2269:B 5.52302e-05
31 *116:48 *2345:CLK 2.77143e-05
32 *116:48 *120:14 6.34867e-05
33 *116:48 *153:30 8.27532e-05
34 *116:48 *162:8 4.14691e-05
35 *116:48 *174:139 1.98839e-05
36 *116:48 *174:156 0.000219711
37 *116:48 *186:30 1.09181e-05
38 *116:48 *201:48 6.00892e-05
39 *116:48 *209:14 6.578e-05
40 *116:48 *209:142 7.07702e-05
41 *116:50 *117:26 0.000398331
42 *116:72 *158:22 0.000306861
43 *116:72 *172:133 0.000315887
44 *116:72 *191:14 0.000321159
45 *116:72 *191:16 0.000295362
46 *116:72 *214:53 1.37495e-05
47 *116:78 *385:DIODE 1.09026e-05
48 *116:78 *2216:A 4.46186e-06
49 *116:78 *2231:B 0.00021693
50 *116:78 *2231:D 7.24145e-05
51 *116:78 *136:16 0.000354096
52 *116:78 *140:14 0
53 *116:78 *184:36 0.000102696
54 *116:78 *187:74 0.000696389
55 *116:84 *118:22 0.000141372
56 *305:DIODE *116:12 0.000139338
57 *556:DIODE *116:48 0.0002083
58 *2212:B *116:12 4.51234e-05
59 *2213:A1 *2213:B1 5.52238e-05
60 *2216:C *116:78 3.27461e-05
61 *2216:D *116:84 1.31194e-05
62 *2345:D *116:48 1.02504e-05
63 *2345:RESET_B *116:48 0.000283814
64 *2359:D *116:48 6.45847e-06
65 *2359:RESET_B *116:72 0.000148189
66 *17:10 *116:78 0
67 *18:10 *116:72 0
68 *38:10 *116:48 5.37741e-06
69 *49:8 *2213:B1 6.62241e-05
70 *49:8 *116:84 0.000440836
71 *67:16 *116:78 0
72 *74:10 *116:12 0
73 *75:16 *116:72 7.83587e-05
74 *95:24 *2215:A2 0
75 *100:75 *2214:A2 0.000196266
76 *100:75 *116:78 0.000387803
77 *100:75 *116:98 0.000221639
78 *106:14 *116:12 2.83471e-05
79 *113:30 *2215:A2 9.58126e-05
80 *113:30 *116:48 0.000767442
81 *113:30 *116:50 0.000206465
82 *115:14 *116:72 0.000393852
83 *115:32 *116:72 6.61649e-05
84 *115:34 *116:12 0.000449705
85 *115:34 *116:14 0.000386596
86 *115:34 *116:72 0.0012835
*RES
1 *2212:X *116:12 46.7554 
2 *116:12 *116:14 4.98214 
3 *116:14 *116:48 41.1393 
4 *116:48 *116:50 10.3929 
5 *116:50 *2215:A2 19.9786 
6 *116:50 *314:DIODE 9.3 
7 *116:14 *116:72 32.4018 
8 *116:72 *116:78 47.5893 
9 *116:78 *116:84 9.46429 
10 *116:84 *2213:B1 11.0679 
11 *116:84 *309:DIODE 9.3 
12 *116:72 *116:98 5.05357 
13 *116:98 *2214:A2 12.425 
14 *116:98 *311:DIODE 9.3 
*END

*D_NET *117 0.0108974
*CONN
*I *2215:B1 I *D sky130_fd_sc_hd__a21oi_1
*I *2214:Y O *D sky130_fd_sc_hd__o21ai_1
*CAP
1 *2215:B1 0
2 *2214:Y 0.00137259
3 *117:26 0.00136807
4 *117:12 0.00274067
5 *117:12 *210:86 0.000132948
6 *117:26 *2215:A1 9.41642e-05
7 *117:26 *123:18 6.80581e-05
8 *117:26 *138:26 0.000114617
9 *117:26 *144:37 0
10 *117:26 *159:16 0.00067825
11 *117:26 *167:24 0.000989216
12 *117:26 *171:66 0.000498026
13 *117:26 *171:86 8.17613e-06
14 *117:26 *202:24 0.00120897
15 *117:26 *217:22 1.90936e-05
16 *2215:A2 *117:26 9.41642e-05
17 *2379:A *117:26 0.000126603
18 *55:20 *117:26 3.36461e-05
19 *60:12 *117:26 4.81201e-05
20 *75:32 *117:26 0
21 *94:20 *117:26 3.94388e-05
22 *95:24 *117:26 0
23 *100:75 *117:12 6.05161e-06
24 *100:84 *117:12 0.000100142
25 *100:99 *117:12 0.000342537
26 *113:18 *117:26 5.33005e-05
27 *113:30 *117:26 0.000243693
28 *115:60 *117:26 0.000118545
29 *116:50 *117:26 0.000398331
*RES
1 *2214:Y *117:12 34.6036 
2 *117:12 *117:26 43.6406 
3 *117:26 *2215:B1 9.3 
*END

*D_NET *118 0.0151866
*CONN
*I *2217:A I *D sky130_fd_sc_hd__clkbuf_4
*I *2216:X O *D sky130_fd_sc_hd__and4_1
*CAP
1 *2217:A 0.000147559
2 *2216:X 0.00111853
3 *118:28 0.00154185
4 *118:22 0.00251282
5 *2217:A *148:14 9.11536e-05
6 *2217:A *172:214 0.000385083
7 *2217:A *178:95 0.000553327
8 *118:22 *2216:B 0.000393489
9 *118:22 *2244:A 5.52238e-05
10 *118:22 *2246:B 6.87574e-05
11 *118:22 *2246:C 4.70078e-05
12 *118:22 *2247:A 0.00044468
13 *118:22 *2335:A 4.42013e-05
14 *118:22 *122:73 1.98839e-05
15 *118:22 *138:54 1.58163e-05
16 *118:22 *145:8 5.36e-05
17 *118:22 *210:58 0.000446777
18 *118:28 *2181:B 0.000126141
19 *118:28 *125:10 2.22675e-05
20 *118:28 *144:37 0.000874351
21 *118:28 *171:66 0.000140344
22 *118:28 *171:230 0.00118981
23 *118:28 *172:188 0.000445925
24 *118:28 *200:48 9.02356e-05
25 *118:28 *202:94 0.000211034
26 *118:28 *210:12 0
27 *118:28 *210:58 0
28 *2195:A *118:22 0.000164152
29 *2216:D *118:22 6.88166e-05
30 *49:8 *118:22 0.00189463
31 *60:10 *118:28 0
32 *63:12 *118:28 8.34236e-05
33 *83:10 *118:22 0.00165399
34 *93:10 *118:28 0
35 *97:24 *118:28 0.000140349
36 *116:84 *118:22 0.000141372
*RES
1 *2216:X *118:22 48.9071 
2 *118:22 *118:28 45.25 
3 *118:28 *2217:A 14.7643 
*END

*D_NET *119 0.0402193
*CONN
*I *337:DIODE I *D sky130_fd_sc_hd__diode_2
*I *2225:A2 I *D sky130_fd_sc_hd__a21o_1
*I *2232:A I *D sky130_fd_sc_hd__and2_2
*I *356:DIODE I *D sky130_fd_sc_hd__diode_2
*I *2230:D I *D sky130_fd_sc_hd__and4_1
*I *351:DIODE I *D sky130_fd_sc_hd__diode_2
*I *2226:C I *D sky130_fd_sc_hd__nand3_2
*I *341:DIODE I *D sky130_fd_sc_hd__diode_2
*I *2223:A I *D sky130_fd_sc_hd__nor2_1
*I *333:DIODE I *D sky130_fd_sc_hd__diode_2
*I *335:DIODE I *D sky130_fd_sc_hd__diode_2
*I *2224:B I *D sky130_fd_sc_hd__xor2_2
*I *2217:X O *D sky130_fd_sc_hd__clkbuf_4
*CAP
1 *337:DIODE 0.000136901
2 *2225:A2 8.99455e-05
3 *2232:A 9.08251e-05
4 *356:DIODE 4.36033e-05
5 *2230:D 3.8657e-05
6 *351:DIODE 0
7 *2226:C 0.000617495
8 *341:DIODE 0
9 *2223:A 1.99254e-05
10 *333:DIODE 0
11 *335:DIODE 0.000247893
12 *2224:B 0.000152644
13 *2217:X 0.000276295
14 *119:185 0.00047806
15 *119:174 0.000377358
16 *119:163 0.000496452
17 *119:133 0.00134133
18 *119:119 0.000791207
19 *119:115 0.00130924
20 *119:87 0.00267293
21 *119:44 0.000512877
22 *119:42 0.00191954
23 *119:38 0.002652
24 *119:26 0.000926486
25 *119:24 0.00086538
26 *119:8 0.00209225
27 *335:DIODE *157:29 0.000230362
28 *337:DIODE *205:94 9.22948e-05
29 *337:DIODE *210:58 2.72967e-05
30 *2224:B *122:35 0.000400802
31 *2225:A2 *2225:A1 5.33005e-05
32 *2225:A2 *2225:B1 5.28598e-05
33 *2225:A2 *125:10 0.000186669
34 *2225:A2 *209:111 0.00040279
35 *2226:C *2226:A 0.000398822
36 *2226:C *2226:B 2.84109e-05
37 *2226:C *2392:A 6.13217e-05
38 *2226:C *126:8 1.02821e-05
39 *2226:C *184:161 9.60939e-05
40 *2230:D *2230:B 3.50409e-05
41 *2230:D *2230:C 0.000137561
42 *2230:D *2253:A 5.49489e-05
43 *2232:A *129:22 1.38323e-05
44 *2232:A *129:39 0.000352374
45 *119:8 *178:95 0.000267731
46 *119:24 *2223:B 9.68602e-05
47 *119:24 *2299:A1 0.000210368
48 *119:24 *2353:CLK 4.43139e-05
49 *119:24 *159:16 0.000280897
50 *119:24 *162:20 2.05938e-05
51 *119:24 *175:33 1.06172e-05
52 *119:24 *203:96 0
53 *119:24 *208:14 0.000355943
54 *119:24 *208:32 0.000568928
55 *119:26 *159:16 0.000128385
56 *119:38 *300:DIODE 2.76585e-05
57 *119:38 *2210:A 0.000219642
58 *119:38 *159:16 0.000169785
59 *119:38 *191:74 5.74499e-06
60 *119:38 *202:24 0.000218454
61 *119:42 *122:43 0.000210736
62 *119:42 *122:45 0.000133715
63 *119:42 *162:8 0.00161688
64 *119:42 *181:32 0
65 *119:42 *183:57 0.000136452
66 *119:42 *183:67 9.15842e-06
67 *119:44 *334:DIODE 3.24049e-05
68 *119:44 *2197:B 5.49995e-05
69 *119:44 *2197:D 4.77002e-05
70 *119:44 *122:35 2.85321e-05
71 *119:87 *2372:CLK 9.31011e-05
72 *119:87 *158:22 1.01912e-05
73 *119:87 *162:20 7.50697e-05
74 *119:87 *177:136 7.03185e-05
75 *119:87 *203:96 0.000353001
76 *119:87 *208:14 7.78118e-05
77 *119:115 *2230:B 0.000227539
78 *119:115 *2230:C 1.38323e-05
79 *119:115 *2270:B 1.02936e-05
80 *119:115 *2271:C 0.000219929
81 *119:115 *128:12 0.000568195
82 *119:115 *150:35 1.27059e-05
83 *119:115 *155:14 0.000400117
84 *119:115 *170:113 0.000309453
85 *119:115 *170:121 5.33005e-05
86 *119:115 *177:136 6.05161e-06
87 *119:115 *185:78 2.49942e-05
88 *119:115 *199:40 0.000182875
89 *119:115 *202:96 0.000745292
90 *119:115 *216:12 5.1588e-05
91 *119:119 *170:100 9.22948e-05
92 *119:119 *170:113 7.83587e-05
93 *119:119 *192:126 0.000170654
94 *119:133 *2392:A 5.17614e-05
95 *119:133 *126:40 0.000694031
96 *119:133 *170:100 0.00111235
97 *119:133 *192:120 0.00064499
98 *119:133 *192:126 0.000980425
99 *119:133 *211:60 0.000350538
100 *119:163 *185:78 0.000217462
101 *119:163 *205:94 0.000195856
102 *119:174 *205:94 4.44838e-05
103 *119:185 *205:94 0.00041411
104 seg[1] *2226:C 3.41649e-05
105 *2182:B *356:DIODE 5.33005e-05
106 *2182:B *2232:A 0.0004358
107 *2182:C *2232:A 5.49995e-05
108 *2353:D *119:24 0.000343582
109 *2356:RESET_B *119:133 0.000124527
110 *2377:RESET_B *119:42 0.000274695
111 *21:22 *2224:B 0.000145106
112 *21:22 *119:44 0.000357738
113 *23:16 *119:8 0.000135028
114 *26:32 *119:24 7.83587e-05
115 *47:22 *119:8 0.000724228
116 *51:12 *119:24 8.17274e-05
117 *51:12 *119:26 1.24368e-05
118 *67:26 *119:133 0.000416674
119 *70:12 *119:42 0
120 *73:16 *119:42 0.000587202
121 *80:12 *119:24 0.000179171
122 *80:12 *119:26 0.000101859
123 *92:8 *119:87 0
124 *100:125 *119:87 0.00132677
125 *101:24 *119:42 0.00014833
126 *101:24 *119:185 0
127 *103:34 *119:163 0
128 *103:34 *119:185 0
129 *105:12 *119:42 0
130 *112:12 *2225:A2 2.58821e-05
131 *114:6 *119:38 0.000343884
*RES
1 *2217:X *119:8 20.9071 
2 *119:8 *119:24 25.6786 
3 *119:24 *119:26 2.58929 
4 *119:26 *119:38 20.1071 
5 *119:38 *119:42 48.9464 
6 *119:42 *119:44 4.23214 
7 *119:44 *2224:B 5.13393 
8 *119:44 *335:DIODE 22.1214 
9 *119:26 *333:DIODE 9.3 
10 *119:24 *2223:A 9.72857 
11 *119:8 *119:87 34.0179 
12 *119:87 *119:115 39.7857 
13 *119:115 *119:119 6.75 
14 *119:119 *119:133 33.3036 
15 *119:133 *341:DIODE 9.3 
16 *119:133 *2226:C 17.9607 
17 *119:119 *351:DIODE 13.8 
18 *119:115 *2230:D 10.6571 
19 *119:87 *119:163 8.625 
20 *119:163 *356:DIODE 14.3357 
21 *119:163 *119:174 0.732143 
22 *119:174 *2232:A 18.0321 
23 *119:174 *119:185 5.58929 
24 *119:185 *2225:A2 18.05 
25 *119:185 *337:DIODE 16.0857 
*END

*D_NET *120 0.014208
*CONN
*I *2220:B I *D sky130_fd_sc_hd__or3_4
*I *2218:X O *D sky130_fd_sc_hd__or4b_1
*CAP
1 *2220:B 0.000498888
2 *2218:X 0.00155074
3 *120:18 0.00174015
4 *120:14 0.002792
5 *2220:B *2295:C1 0.0002698
6 *2220:B *181:46 0.000349433
7 *120:14 *149:16 2.18118e-05
8 *120:14 *184:54 0
9 *120:14 *195:72 0.000136768
10 *120:14 *209:14 9.86945e-05
11 *120:18 *2224:A 4.78056e-05
12 *120:18 *2330:A 5.59013e-05
13 *120:18 *131:44 0.000177271
14 *120:18 *172:64 0.000291181
15 *120:18 *174:28 6.17814e-05
16 *120:18 *185:84 0.00089181
17 *120:18 *188:24 1.41225e-05
18 *120:18 *188:30 0.000363268
19 *120:18 *188:34 2.83806e-05
20 *120:18 *196:44 0.00024557
21 *120:18 *204:108 9.91086e-05
22 *2220:A *2220:B 0.000227912
23 *75:32 *120:14 0.00111284
24 *90:18 *120:18 0.000116155
25 *94:43 *2220:B 0.00183239
26 *100:10 *2220:B 0.00112069
27 *116:48 *120:14 6.34867e-05
*RES
1 *2218:X *120:14 38.5618 
2 *120:14 *120:18 36.3482 
3 *120:18 *2220:B 29.1393 
*END

*D_NET *121 0.0122344
*CONN
*I *2220:C I *D sky130_fd_sc_hd__or3_4
*I *2219:X O *D sky130_fd_sc_hd__or4_1
*CAP
1 *2220:C 0
2 *2219:X 0.000763578
3 *121:20 0.00182749
4 *121:12 0.00259106
5 *121:12 *159:24 0.000107272
6 *121:12 *159:40 0.000137639
7 *121:12 *212:32 5.65955e-05
8 *121:12 *213:24 9.58689e-05
9 *121:20 *334:DIODE 0.000383957
10 *121:20 *343:DIODE 5.49544e-05
11 *121:20 *2187:A 0.000267981
12 *121:20 *2278:A2 1.74352e-05
13 *121:20 *184:58 0.000382341
14 *121:20 *184:60 0.000213179
15 *121:20 *218:14 0.00220148
16 *256:DIODE *121:20 5.33005e-05
17 *2188:C *121:20 0.000627656
18 *2188:D *121:20 0.000519214
19 *2220:A *121:20 4.99047e-05
20 *60:12 *121:12 0.000607897
21 *94:26 *121:20 4.08637e-05
22 *94:41 *121:12 3.06511e-05
23 *94:41 *121:20 2.14658e-05
24 *94:43 *121:20 0.000314191
25 *95:24 *121:12 0.000225988
26 *96:20 *121:12 0.000193196
27 *98:10 *121:12 0.000449225
*RES
1 *2219:X *121:12 37.675 
2 *121:12 *121:20 42.0714 
3 *121:20 *2220:C 9.3 
*END

*D_NET *122 0.0354303
*CONN
*I *2227:A I *D sky130_fd_sc_hd__and3_1
*I *331:DIODE I *D sky130_fd_sc_hd__diode_2
*I *2222:A I *D sky130_fd_sc_hd__nand2_1
*I *2246:A I *D sky130_fd_sc_hd__and3_1
*I *390:DIODE I *D sky130_fd_sc_hd__diode_2
*I *2235:C1 I *D sky130_fd_sc_hd__o211a_1
*I *365:DIODE I *D sky130_fd_sc_hd__diode_2
*I *342:DIODE I *D sky130_fd_sc_hd__diode_2
*I *2220:X O *D sky130_fd_sc_hd__or3_4
*CAP
1 *2227:A 2.12958e-05
2 *331:DIODE 4.43989e-05
3 *2222:A 3.99307e-05
4 *2246:A 0
5 *390:DIODE 2.85076e-05
6 *2235:C1 0
7 *365:DIODE 0.000139623
8 *342:DIODE 0
9 *2220:X 0.000248292
10 *122:87 0.00130176
11 *122:73 0.000347553
12 *122:49 0.000399766
13 *122:45 0.00255678
14 *122:43 0.00238606
15 *122:37 0.0017957
16 *122:35 0.0019983
17 *122:22 0.0019699
18 *122:14 0.000410995
19 *365:DIODE *362:DIODE 0.000182806
20 *365:DIODE *2211:A 0.000154553
21 *365:DIODE *138:32 0.000354073
22 *365:DIODE *176:102 0.000166374
23 *365:DIODE *185:84 0.000164852
24 *2227:A *2295:A1 8.52926e-05
25 *2227:A *2295:B1 2.84109e-05
26 *2227:A *182:46 1.59373e-05
27 *122:14 *495:DIODE 1.99099e-05
28 *122:14 *2295:A1 0.000359377
29 *122:14 *2295:B1 6.92966e-05
30 *122:14 *2295:C1 0.000186765
31 *122:14 *167:48 0.000108839
32 *122:14 *218:14 9.35794e-06
33 *122:22 *495:DIODE 0
34 *122:22 *188:42 0
35 *122:35 *334:DIODE 0.000433653
36 *122:35 *424:DIODE 0.0003613
37 *122:35 *494:DIODE 4.45572e-05
38 *122:35 *2236:A 6.65015e-05
39 *122:35 *2236:B 0.000230475
40 *122:35 *149:16 0.000251676
41 *122:35 *182:46 6.57616e-05
42 *122:35 *198:28 0.000125731
43 *122:45 *145:10 0.000808233
44 *122:45 *178:97 0.000389668
45 *122:49 *2211:C 3.51056e-05
46 *122:49 *2235:A2 0.000393781
47 *122:49 *2235:B1 0.000178503
48 *122:49 *130:20 0.000905468
49 *122:49 *212:104 0.00103569
50 *122:73 *2246:C 0.000168382
51 *122:73 *145:10 0.00016327
52 *122:87 *124:16 0.000854818
53 *305:DIODE *122:35 4.77002e-05
54 *603:DIODE *122:43 4.79773e-05
55 *2188:D *122:35 0.000125724
56 *2212:B *122:35 0.00026546
57 *2224:B *122:35 0.000400802
58 *2377:RESET_B *122:43 0.000211143
59 *2377:RESET_B *122:45 3.20387e-05
60 *26:8 *122:35 2.12733e-05
61 *27:14 *122:35 0.00015185
62 *33:16 *122:37 0.000304387
63 *33:16 *122:87 0.00184332
64 *33:26 *331:DIODE 4.53889e-05
65 *33:26 *122:87 2.37369e-05
66 *41:18 *331:DIODE 0.000125547
67 *41:18 *122:87 0.000640151
68 *70:12 *122:35 2.74584e-05
69 *70:12 *122:43 0
70 *73:16 *122:45 0.00205083
71 *82:18 *122:43 2.34505e-05
72 *82:18 *122:45 0.0034899
73 *83:10 *390:DIODE 5.52238e-05
74 *83:10 *122:45 0.000729651
75 *83:10 *122:73 0.000731265
76 *99:27 *122:35 0.000585342
77 *101:24 *122:43 4.09607e-05
78 *101:24 *122:45 0.000706399
79 *105:12 *122:43 0.000116981
80 *115:38 *122:35 5.52238e-05
81 *116:12 *122:35 3.09896e-05
82 *118:22 *122:73 1.98839e-05
83 *119:42 *122:43 0.000210736
84 *119:42 *122:45 0.000133715
85 *119:44 *122:35 2.85321e-05
*RES
1 *2220:X *122:14 25.1036 
2 *122:14 *122:22 11.1786 
3 *122:22 *342:DIODE 9.3 
4 *122:22 *122:35 48.7857 
5 *122:35 *122:37 3 
6 *122:37 *122:43 13.6607 
7 *122:43 *122:45 65.0893 
8 *122:45 *122:49 16.9464 
9 *122:49 *365:DIODE 23.9607 
10 *122:49 *2235:C1 9.3 
11 *122:45 *122:73 13.8929 
12 *122:73 *390:DIODE 9.83571 
13 *122:73 *2246:A 9.3 
14 *122:37 *122:87 26.8214 
15 *122:87 *2222:A 10.0321 
16 *122:87 *331:DIODE 10.6571 
17 *122:14 *2227:A 10.2464 
*END

*D_NET *123 0.016755
*CONN
*I *2222:B I *D sky130_fd_sc_hd__nand2_1
*I *332:DIODE I *D sky130_fd_sc_hd__diode_2
*I *2221:X O *D sky130_fd_sc_hd__a31o_1
*CAP
1 *2222:B 5.32806e-05
2 *332:DIODE 0
3 *2221:X 0.00232481
4 *123:20 5.32806e-05
5 *123:18 0.00241106
6 *123:8 0.00473587
7 *2222:B *124:16 0.000177815
8 *123:8 *612:DIODE 2.55889e-05
9 *123:8 *2221:A1 5.91452e-05
10 *123:8 *141:26 0.000242399
11 *123:8 *213:79 1.58163e-05
12 *123:8 *213:92 0.000156852
13 *123:8 *215:10 0.000840219
14 *123:8 *218:76 2.79421e-05
15 *123:18 *613:DIODE 0.000125724
16 *123:18 *132:18 0.000187254
17 *123:18 *167:24 0.0010986
18 *123:18 *167:28 0.000217423
19 *123:18 *175:64 0.000157454
20 *123:18 *190:44 4.96013e-05
21 *123:18 *202:44 0.00010326
22 *2221:A3 *123:8 9.23451e-05
23 *2379:A *123:18 0.000221164
24 *33:26 *2222:B 0.000175892
25 *55:14 *123:18 0.000716297
26 *55:20 *123:18 0.0011113
27 *71:16 *123:18 0.000346329
28 *98:10 *123:18 0.000795853
29 *115:32 *123:8 4.58194e-05
30 *115:60 *123:18 0.000118545
31 *117:26 *123:18 6.80581e-05
*RES
1 *2221:X *123:8 42.2643 
2 *123:8 *123:18 46.8912 
3 *123:18 *123:20 4.5 
4 *123:20 *332:DIODE 9.3 
5 *123:20 *2222:B 11.0679 
*END

*D_NET *124 0.00866426
*CONN
*I *2223:B I *D sky130_fd_sc_hd__nor2_1
*I *2222:Y O *D sky130_fd_sc_hd__nand2_1
*CAP
1 *2223:B 0.000519774
2 *2222:Y 0.000945158
3 *124:16 0.00146493
4 *2223:B *2353:CLK 2.28343e-05
5 *2223:B *173:18 0.000135968
6 *2223:B *175:33 0.00115699
7 *124:16 *2380:A 0
8 *124:16 *169:100 0.000175892
9 *124:16 *210:101 0.00062264
10 *2222:B *124:16 0.000177815
11 *2368:D *2223:B 7.27331e-05
12 *33:26 *124:16 0.000350823
13 *50:12 *124:16 0.000198487
14 *51:12 *124:16 6.63305e-05
15 *51:22 *124:16 0
16 *80:12 *2223:B 0.000137561
17 *89:12 *124:16 0.00064507
18 *107:10 *2223:B 0.00101958
19 *119:24 *2223:B 9.68602e-05
20 *122:87 *124:16 0.000854818
*RES
1 *2222:Y *124:16 46.9964 
2 *124:16 *2223:B 30.7643 
*END

*D_NET *125 0.0300041
*CONN
*I *343:DIODE I *D sky130_fd_sc_hd__diode_2
*I *2227:B I *D sky130_fd_sc_hd__and3_1
*I *2225:X O *D sky130_fd_sc_hd__a21o_1
*CAP
1 *343:DIODE 3.96417e-05
2 *2227:B 0.000245
3 *2225:X 0.00086717
4 *125:26 0.00102697
5 *125:24 0.00174909
6 *125:16 0.00261383
7 *125:10 0.00247424
8 *2227:B *127:20 2.04825e-05
9 *2227:B *182:46 5.68722e-05
10 *2227:B *188:42 7.49621e-05
11 *125:10 *2225:B1 0.000268396
12 *125:10 *170:135 0.000144732
13 *125:10 *170:151 0.000562763
14 *125:10 *171:230 0.000256382
15 *125:10 *185:80 0.00181804
16 *125:10 *209:111 0.00101582
17 *125:16 *187:74 6.05161e-06
18 *125:24 *127:20 0.000414138
19 *125:24 *134:224 1.16341e-05
20 *125:24 *136:16 0.00309703
21 *125:24 *192:24 9.48025e-05
22 *125:24 *192:140 0.000681778
23 *125:26 *127:20 0.000574831
24 *125:26 *147:26 0.00235188
25 *125:26 *188:42 0.000235314
26 *2225:A2 *125:10 0.000186669
27 *29:8 *125:16 0.00103303
28 *60:10 *125:10 0.00115198
29 *69:8 *125:16 0.00308344
30 *100:46 *125:26 0.00209068
31 *100:50 *125:24 7.58841e-05
32 *100:75 *125:24 0.00160336
33 *118:28 *125:10 2.22675e-05
34 *121:20 *343:DIODE 5.49544e-05
*RES
1 *2225:X *125:10 48.9429 
2 *125:10 *125:16 44.0357 
3 *125:16 *125:24 46.5207 
4 *125:24 *125:26 32.4554 
5 *125:26 *2227:B 17.55 
6 *125:26 *343:DIODE 14.3357 
*END

*D_NET *126 0.0284455
*CONN
*I *347:DIODE I *D sky130_fd_sc_hd__diode_2
*I *2229:B I *D sky130_fd_sc_hd__xnor2_1
*I *344:DIODE I *D sky130_fd_sc_hd__diode_2
*I *2227:C I *D sky130_fd_sc_hd__and3_1
*I *2226:Y O *D sky130_fd_sc_hd__nand3_2
*CAP
1 *347:DIODE 0
2 *2229:B 8.87829e-05
3 *344:DIODE 0
4 *2227:C 0.000112295
5 *2226:Y 0.00016619
6 *126:40 0.00041847
7 *126:22 0.00119997
8 *126:20 0.0035537
9 *126:12 0.00370742
10 *126:8 0.00173727
11 *2227:C *2295:A1 0.000212061
12 *2227:C *182:46 8.7487e-05
13 *2229:B *2391:A 0.000112995
14 *126:8 *2226:A 9.31893e-05
15 *126:8 *2226:B 9.81903e-05
16 *126:8 *2392:A 0.000610084
17 *126:8 *185:30 0.000525401
18 *126:12 *2362:CLK 0.000128146
19 *126:12 *170:34 0.000266956
20 *126:12 *175:206 4.66511e-05
21 *126:12 *175:219 0.00107753
22 *126:12 *189:16 0.00203605
23 *126:12 *211:10 2.50556e-05
24 *126:12 *211:14 0.000691309
25 *126:12 *211:60 7.22427e-05
26 *126:20 *2278:A1 4.87953e-05
27 *126:20 *2317:A 3.67257e-05
28 *126:20 *134:47 6.09572e-05
29 *126:20 *171:135 4.45768e-06
30 *126:20 *204:82 1.55953e-05
31 *126:20 *208:38 0.000121573
32 *126:22 *378:DIODE 5.71472e-05
33 *126:22 *379:DIODE 9.31893e-05
34 *126:22 *134:47 5.52302e-05
35 *126:22 *181:46 0.00244537
36 *126:22 *181:78 0.00250181
37 *126:22 *182:46 0.0024054
38 *126:22 *183:51 0.000705317
39 *126:22 *183:57 3.14163e-05
40 *126:22 *198:28 5.51819e-05
41 *126:40 *170:100 5.41794e-05
42 *126:40 *189:16 0.000235099
43 *126:40 *211:60 2.47093e-05
44 seg[1] *126:8 0.000139907
45 *2226:C *126:8 1.02821e-05
46 *2354:RESET_B *126:12 1.39198e-05
47 *2356:RESET_B *126:40 0.000127446
48 *28:20 *126:12 0.000471273
49 *57:12 *2229:B 0.000221634
50 *67:26 *126:40 0.000178293
51 *109:22 *126:12 3.0089e-05
52 *109:22 *126:40 0.000241129
53 *109:28 *126:12 0.000297864
54 *119:133 *126:40 0.000694031
*RES
1 *2226:Y *126:8 21.7286 
2 *126:8 *126:12 48.9464 
3 *126:12 *126:20 37.4643 
4 *126:20 *126:22 48.1786 
5 *126:22 *2227:C 12.4786 
6 *126:22 *344:DIODE 9.3 
7 *126:8 *126:40 16.7679 
8 *126:40 *2229:B 11.9071 
9 *126:40 *347:DIODE 9.3 
*END

*D_NET *127 0.0344637
*CONN
*I *345:DIODE I *D sky130_fd_sc_hd__diode_2
*I *2228:A I *D sky130_fd_sc_hd__clkbuf_1
*I *2227:X O *D sky130_fd_sc_hd__and3_1
*CAP
1 *345:DIODE 4.42038e-05
2 *2228:A 0
3 *2227:X 0.0126677
4 *127:26 0.000292699
5 *127:20 0.0129162
6 *345:DIODE *141:92 5.33005e-05
7 *345:DIODE *177:157 0.000137983
8 *345:DIODE *199:74 3.97677e-05
9 *127:20 *2383:A 0.000821829
10 *127:20 *136:16 0.000655915
11 *127:20 *138:26 0.000123255
12 *127:20 *147:10 0.000186052
13 *127:20 *147:26 0.000553711
14 *127:20 *148:12 0.000288039
15 *127:20 *149:32 0.000242825
16 *127:20 *152:20 0
17 *127:20 *158:22 0
18 *127:20 *158:24 0.000200642
19 *127:20 *179:142 0.000377942
20 *127:20 *179:194 0.000260864
21 *127:20 *187:34 0.000135575
22 *127:20 *187:74 0.000409714
23 *127:20 *188:42 0.000208504
24 *127:20 *192:26 0.000155308
25 *127:20 *192:140 0.000172687
26 *127:26 *204:28 0.000759083
27 *2227:B *127:20 2.04825e-05
28 *2361:D *127:20 0.000202804
29 *26:10 *127:20 0.000144274
30 *31:24 *127:26 0.000163694
31 *100:46 *127:20 0.00019452
32 *100:75 *127:20 0.000276612
33 *106:68 *127:26 4.36671e-05
34 *106:88 *127:26 0.000724871
35 *125:24 *127:20 0.000414138
36 *125:26 *127:20 0.000574831
*RES
1 *2227:X *127:20 47.1331 
2 *127:20 *127:26 17.9011 
3 *127:26 *2228:A 9.3 
4 *127:26 *345:DIODE 10.6571 
*END

*D_NET *128 0.0104988
*CONN
*I *2233:A2 I *D sky130_fd_sc_hd__o21ba_1
*I *2230:X O *D sky130_fd_sc_hd__and4_1
*CAP
1 *2233:A2 0
2 *2230:X 0.000621299
3 *128:20 0.00121568
4 *128:12 0.00183698
5 *128:12 *350:DIODE 5.33005e-05
6 *128:12 *444:DIODE 0.00014051
7 *128:12 *447:DIODE 5.52238e-05
8 *128:12 *2230:C 0.000304394
9 *128:12 *170:113 3.75081e-05
10 *128:12 *170:121 2.89016e-05
11 *128:12 *199:14 5.33005e-05
12 *128:20 *374:DIODE 0.000120697
13 *128:20 *466:DIODE 0
14 *128:20 *2233:A1 5.04841e-06
15 *128:20 *2233:B1_N 5.35952e-05
16 *128:20 *129:41 0.00201834
17 *128:20 *151:39 0.000726318
18 *128:20 *151:55 0.00202743
19 *128:20 *187:16 1.22691e-05
20 *128:20 *200:14 0
21 *2238:B *128:20 0.000169804
22 *2354:D *128:20 0
23 *52:8 *128:12 0.000265453
24 *108:26 *128:20 0.000184522
25 *119:115 *128:12 0.000568195
*RES
1 *2230:X *128:12 27.2107 
2 *128:12 *128:20 45.0714 
3 *128:20 *2233:A2 9.3 
*END

*D_NET *129 0.0198551
*CONN
*I *357:DIODE I *D sky130_fd_sc_hd__diode_2
*I *2238:C I *D sky130_fd_sc_hd__and4_1
*I *374:DIODE I *D sky130_fd_sc_hd__diode_2
*I *2232:B I *D sky130_fd_sc_hd__and2_2
*I *2231:X O *D sky130_fd_sc_hd__and4_1
*CAP
1 *357:DIODE 0
2 *2238:C 0.000110273
3 *374:DIODE 7.3044e-05
4 *2232:B 0
5 *2231:X 4.40117e-05
6 *129:41 0.00134335
7 *129:39 0.00223044
8 *129:22 0.00124268
9 *129:12 0.00224181
10 *129:10 0.00211355
11 *374:DIODE *151:55 0.00012076
12 *2238:C *2238:D 0.000163441
13 *2238:C *204:45 1.38323e-05
14 *2238:C *204:57 2.59355e-05
15 *129:10 *136:16 0.000101758
16 *129:10 *192:140 4.89267e-05
17 *129:12 *2211:B 0.000264539
18 *129:12 *2231:B 7.4854e-05
19 *129:12 *138:32 0.00213297
20 *129:12 *184:36 0.000855794
21 *129:12 *185:114 0.000265014
22 *129:12 *210:16 0.000334729
23 *129:12 *210:18 0.000422578
24 *129:12 *210:20 0.0011546
25 *129:22 *203:118 9.52246e-05
26 *129:39 *2270:B 7.6997e-05
27 *129:39 *2270:D 0
28 *129:39 *2271:D 0.000142356
29 *129:39 *150:35 7.69702e-05
30 *129:39 *151:39 0
31 *129:39 *154:10 3.30403e-05
32 *129:39 *183:150 0
33 *129:39 *204:28 9.47537e-07
34 *129:41 *151:39 1.43288e-05
35 *129:41 *151:55 6.80354e-05
36 *129:41 *152:20 1.771e-05
37 *129:41 *154:10 0
38 *2182:B *129:39 0.000393218
39 *2182:C *129:22 5.80833e-05
40 *2232:A *129:22 1.38323e-05
41 *2232:A *129:39 0.000352374
42 *2238:B *2238:C 0.000267731
43 *100:125 *129:22 0
44 *100:127 *129:12 5.74036e-05
45 *109:12 *129:22 9.67754e-05
46 *109:12 *129:39 0.000572131
47 *128:20 *374:DIODE 0.000120697
48 *128:20 *129:41 0.00201834
*RES
1 *2231:X *129:10 19.6393 
2 *129:10 *129:12 49 
3 *129:12 *129:22 12.9286 
4 *129:22 *2232:B 9.3 
5 *129:22 *129:39 28.0268 
6 *129:39 *129:41 26.6875 
7 *129:41 *374:DIODE 15.4429 
8 *129:41 *2238:C 17.2107 
9 *129:12 *357:DIODE 9.3 
*END

*D_NET *130 0.0296212
*CONN
*I *2233:B1_N I *D sky130_fd_sc_hd__o21ba_1
*I *359:DIODE I *D sky130_fd_sc_hd__diode_2
*I *361:DIODE I *D sky130_fd_sc_hd__diode_2
*I *2234:B I *D sky130_fd_sc_hd__nand2_2
*I *363:DIODE I *D sky130_fd_sc_hd__diode_2
*I *2235:A2 I *D sky130_fd_sc_hd__o211a_1
*I *2232:X O *D sky130_fd_sc_hd__and2_2
*CAP
1 *2233:B1_N 0.000353582
2 *359:DIODE 0
3 *361:DIODE 0
4 *2234:B 0.000119223
5 *363:DIODE 0
6 *2235:A2 0.000225349
7 *2232:X 0
8 *130:74 0.000828112
9 *130:52 0.00171369
10 *130:46 0.00223318
11 *130:38 0.0015686
12 *130:20 0.0017938
13 *130:4 0.00297287
14 *2233:B1_N *2233:A1 4.82773e-06
15 *2233:B1_N *187:16 2.39334e-06
16 *2233:B1_N *187:20 0.000204295
17 *2234:B *186:30 0
18 *2234:B *188:22 9.25014e-06
19 *2234:B *188:24 7.57946e-05
20 *2234:B *188:30 9.91086e-05
21 *2234:B *201:54 0
22 *2234:B *202:44 9.58181e-05
23 *2235:A2 *2211:C 1.47872e-05
24 *2235:A2 *2235:B1 5.13226e-05
25 *2235:A2 *188:102 0.000173912
26 *130:20 *212:104 0.00112274
27 *130:38 *2293:A 5.54204e-05
28 *130:38 *134:105 1.48555e-05
29 *130:38 *156:14 0.00100021
30 *130:38 *166:66 0.000475618
31 *130:38 *166:77 0.000191403
32 *130:38 *166:90 0.00221965
33 *130:38 *203:118 0.000242994
34 *130:38 *204:76 0.000169095
35 *130:38 *205:68 0.000377838
36 *130:38 *215:10 0.000726567
37 *130:38 *221:10 0.000260042
38 *130:46 *180:58 0.000160667
39 *130:46 *205:58 0.000166973
40 *130:46 *221:14 9.58632e-05
41 *130:52 *2215:A1 0.000469497
42 *130:52 *134:103 1.90111e-05
43 *130:52 *180:58 0.000594711
44 *130:52 *194:18 9.60939e-05
45 *130:52 *202:44 0.00189847
46 *130:52 *204:108 0.00111659
47 *130:52 *205:58 0.000593116
48 *130:74 *187:20 0.000641383
49 *2182:A *130:20 0.000219366
50 *2182:B *130:20 0.00022367
51 *2182:D *130:20 0.000496625
52 *2376:D *130:46 0.000180202
53 *38:10 *2234:B 0.000100831
54 *94:16 *130:20 0.000453932
55 *96:14 *2234:B 3.04394e-05
56 *96:14 *130:52 0.00124161
57 *100:125 *130:20 5.46439e-05
58 *108:26 *2233:B1_N 9.35794e-06
59 *116:48 *2234:B 8.95742e-06
60 *122:49 *2235:A2 0.000393781
61 *122:49 *130:20 0.000905468
62 *128:20 *2233:B1_N 5.35952e-05
*RES
1 *2232:X *130:4 9.3 
2 *130:4 *130:20 44.4464 
3 *130:20 *2235:A2 14.7821 
4 *130:20 *363:DIODE 9.3 
5 *130:4 *130:38 49.5536 
6 *130:38 *130:46 13.0179 
7 *130:46 *130:52 48.4821 
8 *130:52 *2234:B 21.4964 
9 *130:52 *361:DIODE 9.3 
10 *130:46 *130:74 10.7857 
11 *130:74 *359:DIODE 9.3 
12 *130:74 *2233:B1_N 14.2643 
*END

*D_NET *131 0.0181665
*CONN
*I *2235:B1 I *D sky130_fd_sc_hd__o211a_1
*I *364:DIODE I *D sky130_fd_sc_hd__diode_2
*I *367:DIODE I *D sky130_fd_sc_hd__diode_2
*I *2236:B I *D sky130_fd_sc_hd__xnor2_2
*I *2234:Y O *D sky130_fd_sc_hd__nand2_2
*CAP
1 *2235:B1 0.000136681
2 *364:DIODE 0
3 *367:DIODE 0
4 *2236:B 0.000128461
5 *2234:Y 0
6 *131:44 0.00198268
7 *131:42 0.00189724
8 *131:18 0.00125774
9 *131:16 0.00196014
10 *131:4 0.00088209
11 *2235:B1 *2211:C 0.00026023
12 *2235:B1 *181:10 8.92221e-05
13 *2236:B *2236:A 1.98839e-05
14 *2236:B *193:10 4.25809e-05
15 *131:16 *578:DIODE 2.20282e-05
16 *131:16 *2359:CLK 9.60343e-05
17 *131:16 *153:55 4.84313e-05
18 *131:16 *174:92 5.1588e-05
19 *131:16 *201:48 0.00012788
20 *131:18 *2256:A 0.000126416
21 *131:18 *134:16 0.000252557
22 *131:18 *168:12 0.000546307
23 *131:18 *169:34 7.83659e-05
24 *131:18 *169:40 0.000290136
25 *131:18 *187:34 0
26 *131:18 *193:10 0.000465194
27 *131:42 *2234:A 5.33005e-05
28 *131:42 *201:48 9.60939e-05
29 *131:44 *169:22 4.44684e-05
30 *131:44 *172:64 2.70899e-05
31 *131:44 *172:88 0.000152695
32 *131:44 *181:10 0.00261682
33 *131:44 *181:12 0.000844139
34 *131:44 *181:22 0.00010237
35 *131:44 *188:22 0.000179118
36 *131:44 *188:24 3.06511e-05
37 *131:44 *195:42 9.56115e-05
38 *131:44 *213:92 0.000831397
39 *2235:A2 *2235:B1 5.13226e-05
40 *2359:D *131:16 0.00016656
41 *2359:D *131:42 1.38323e-05
42 *2361:RESET_B *131:44 1.50223e-05
43 *26:8 *2236:B 0.000143633
44 *26:10 *2236:B 0
45 *26:10 *131:18 0
46 *28:28 *2235:B1 9.93108e-05
47 *28:28 *131:44 0.000684844
48 *29:12 *131:44 0
49 *88:12 *131:18 0.000207313
50 *100:10 *131:18 0.000287441
51 *105:24 *131:16 7.53309e-05
52 *120:18 *131:44 0.000177271
53 *122:35 *2236:B 0.000230475
54 *122:49 *2235:B1 0.000178503
*RES
1 *2234:Y *131:4 9.3 
2 *131:4 *131:16 24.2321 
3 *131:16 *131:18 31.6964 
4 *131:18 *2236:B 17.6214 
5 *131:18 *367:DIODE 13.8 
6 *131:4 *131:42 5.875 
7 *131:42 *131:44 52.9464 
8 *131:44 *364:DIODE 13.8 
9 *131:44 *2235:B1 18.1571 
*END

*D_NET *132 0.0156249
*CONN
*I *2238:D I *D sky130_fd_sc_hd__and4_1
*I *2237:X O *D sky130_fd_sc_hd__and4_1
*CAP
1 *2238:D 0.00117055
2 *2237:X 0.00335697
3 *132:18 0.00452752
4 *2238:D *505:DIODE 5.33005e-05
5 *2238:D *2280:B 5.33005e-05
6 *2238:D *2280:C 0.000394744
7 *2238:D *2281:B 0.000140602
8 *2238:D *134:103 0.000670194
9 *2238:D *156:38 0.000102056
10 *2238:D *156:42 0.000433678
11 *2238:D *156:65 0.0006343
12 *2238:D *178:48 4.78647e-05
13 *2238:D *181:150 0.000180501
14 *2238:D *182:113 0.000256468
15 *2238:D *182:128 1.01075e-05
16 *2238:D *192:92 0.000135028
17 *2238:D *204:57 2.18902e-05
18 *2238:D *205:58 2.68929e-05
19 *132:18 *2273:A1 0.000101915
20 *132:18 *134:103 2.52319e-05
21 *132:18 *153:20 0
22 *132:18 *166:30 0.000848358
23 *132:18 *178:48 0.00111902
24 *132:18 *195:72 2.11419e-05
25 *132:18 *202:62 0.000840188
26 *132:18 *214:38 1.01912e-05
27 *132:18 *218:34 9.09469e-06
28 *2238:C *2238:D 0.000163441
29 *2374:D *132:18 1.80622e-05
30 *2379:A *132:18 0
31 *17:28 *132:18 4.55219e-05
32 *71:16 *132:18 0
33 *101:24 *132:18 1.954e-05
34 *123:18 *132:18 0.000187254
*RES
1 *2237:X *132:18 41.9413 
2 *132:18 *2238:D 42.7554 
*END

*D_NET *133 0.0161264
*CONN
*I *2239:A I *D sky130_fd_sc_hd__clkbuf_4
*I *2238:X O *D sky130_fd_sc_hd__and4_1
*CAP
1 *2239:A 2.1025e-05
2 *2238:X 0.00573393
3 *133:16 0.00575495
4 *133:16 *466:DIODE 9.59532e-06
5 *133:16 *141:26 0.000209961
6 *133:16 *158:22 0.000122609
7 *133:16 *168:12 0.000339713
8 *133:16 *169:34 0.000591216
9 *133:16 *171:86 4.10444e-05
10 *133:16 *173:14 9.08889e-06
11 *133:16 *192:61 0.000115556
12 *133:16 *193:10 0.000403537
13 *133:16 *193:22 0.00266153
14 *133:16 *214:53 4.97144e-05
15 *2238:B *133:16 5.7836e-06
16 *2357:RESET_B *2239:A 5.71472e-05
*RES
1 *2238:X *133:16 46.0102 
2 *133:16 *2239:A 14.3357 
*END

*D_NET *134 0.0544673
*CONN
*I *398:DIODE I *D sky130_fd_sc_hd__diode_2
*I *2250:A I *D sky130_fd_sc_hd__nand2_1
*I *2242:C I *D sky130_fd_sc_hd__and3_2
*I *2272:A I *D sky130_fd_sc_hd__and3_2
*I *451:DIODE I *D sky130_fd_sc_hd__diode_2
*I *2254:A1 I *D sky130_fd_sc_hd__a21oi_1
*I *406:DIODE I *D sky130_fd_sc_hd__diode_2
*I *2264:A I *D sky130_fd_sc_hd__and2_2
*I *430:DIODE I *D sky130_fd_sc_hd__diode_2
*I *404:DIODE I *D sky130_fd_sc_hd__diode_2
*I *2253:B I *D sky130_fd_sc_hd__and3_2
*I *389:DIODE I *D sky130_fd_sc_hd__diode_2
*I *2245:D I *D sky130_fd_sc_hd__nand4_2
*I *378:DIODE I *D sky130_fd_sc_hd__diode_2
*I *2241:A2 I *D sky130_fd_sc_hd__a21oi_1
*I *382:DIODE I *D sky130_fd_sc_hd__diode_2
*I *2240:B I *D sky130_fd_sc_hd__xor2_1
*I *376:DIODE I *D sky130_fd_sc_hd__diode_2
*I *2239:X O *D sky130_fd_sc_hd__clkbuf_4
*CAP
1 *398:DIODE 0
2 *2250:A 0.00012057
3 *2242:C 0.000166406
4 *2272:A 9.3016e-05
5 *451:DIODE 0
6 *2254:A1 0
7 *406:DIODE 0.000101648
8 *2264:A 8.43142e-05
9 *430:DIODE 0
10 *404:DIODE 0
11 *2253:B 0.000166785
12 *389:DIODE 6.414e-05
13 *2245:D 0
14 *378:DIODE 3.98763e-05
15 *2241:A2 0
16 *382:DIODE 0
17 *2240:B 7.34954e-05
18 *376:DIODE 0
19 *2239:X 0
20 *134:224 0.000697076
21 *134:175 0.000262987
22 *134:173 0.00167117
23 *134:161 0.00153357
24 *134:159 0.000198923
25 *134:141 0.000453404
26 *134:126 0.00042474
27 *134:113 0.000606094
28 *134:111 0.00192321
29 *134:105 0.00214533
30 *134:103 0.00139021
31 *134:75 0.000598692
32 *134:65 0.00162192
33 *134:47 0.000788384
34 *134:39 0.00478825
35 *134:32 0.0040296
36 *134:16 0.000648701
37 *134:10 0.00086669
38 *134:8 0.000430925
39 *134:6 0.000760149
40 *378:DIODE *379:DIODE 0.000128496
41 *378:DIODE *181:78 0.000202083
42 *378:DIODE *191:98 0.000144773
43 *406:DIODE *407:DIODE 2.12005e-05
44 *406:DIODE *2254:A2 2.28598e-05
45 *406:DIODE *2254:B1 5.63975e-05
46 *2240:B *143:12 6.42095e-05
47 *2250:A *2250:B 0.000143505
48 *2250:A *141:40 5.75764e-05
49 *2250:A *142:14 2.85234e-05
50 *2253:B *2253:A 1.90303e-05
51 *2264:A *150:35 0.000143633
52 *2264:A *151:22 6.05161e-06
53 *2272:A *155:14 9.60875e-05
54 *2272:A *162:20 0.000219711
55 *134:8 *153:55 7.6644e-05
56 *134:8 *169:34 0.000137855
57 *134:8 *169:40 4.67971e-05
58 *134:8 *187:34 0.000206323
59 *134:10 *187:34 0.000156868
60 *134:16 *2256:A 6.66813e-05
61 *134:16 *143:12 0.000190848
62 *134:16 *187:34 0.000561972
63 *134:39 *2186:D_N 2.59355e-05
64 *134:39 *2341:CLK 2.42516e-05
65 *134:39 *174:6 8.11174e-05
66 *134:39 *174:10 0.000137447
67 *134:39 *209:142 0.000115099
68 *134:39 *212:20 0.000517363
69 *134:39 *212:48 0.000501523
70 *134:47 *379:DIODE 5.71472e-05
71 *134:47 *190:88 0.000262506
72 *134:47 *208:38 0.00151129
73 *134:47 *213:12 0.000737467
74 *134:47 *213:182 0.000547194
75 *134:65 *2186:D_N 6.05161e-06
76 *134:65 *2341:CLK 1.21258e-05
77 *134:65 *166:66 8.04387e-05
78 *134:65 *169:100 3.06878e-06
79 *134:65 *190:44 2.00751e-05
80 *134:75 *2245:C 0.000567698
81 *134:75 *169:100 0.000817856
82 *134:103 *166:66 0.000300699
83 *134:103 *169:100 4.31104e-05
84 *134:103 *182:18 0.000135028
85 *134:103 *190:44 1.5942e-05
86 *134:103 *191:90 0.000187661
87 *134:103 *194:18 5.75147e-05
88 *134:103 *202:62 0.000218128
89 *134:103 *204:108 4.58194e-05
90 *134:103 *205:58 0.000936951
91 *134:105 *180:58 0.000286062
92 *134:105 *180:67 0.000162118
93 *134:105 *180:82 0.00020549
94 *134:105 *205:58 0.000244869
95 *134:105 *215:10 0.000250686
96 *134:105 *221:10 0.000589559
97 *134:111 *148:14 0.00157313
98 *134:111 *178:74 0.000304394
99 *134:113 *184:161 0.00151204
100 *134:126 *184:155 0.000115474
101 *134:126 *184:161 8.32242e-05
102 *134:141 *150:35 9.58624e-05
103 *134:141 *151:22 0.000135028
104 *134:159 *205:58 2.70899e-05
105 *134:159 *205:68 0.000137678
106 *134:159 *215:10 9.42015e-05
107 *134:161 *162:20 5.52238e-05
108 *134:173 *162:20 0.000300412
109 *134:173 *184:20 0.000173455
110 *134:173 *184:114 0.000111268
111 *134:173 *203:118 0
112 *134:173 *208:14 0.00168673
113 *134:175 *2254:A2 3.18676e-05
114 *134:175 *210:58 4.47653e-05
115 *134:224 *141:40 6.81786e-05
116 *134:224 *147:18 0.000158111
117 *134:224 *147:26 3.28615e-05
118 *134:224 *148:12 0.00013926
119 *134:224 *169:34 2.84398e-05
120 *134:224 *171:16 1.39726e-05
121 *134:224 *179:170 0.000136958
122 *134:224 *187:34 2.16719e-05
123 *134:224 *192:24 0.000117378
124 *299:DIODE *2242:C 5.33005e-05
125 *2238:D *134:103 0.000670194
126 *2259:A *134:224 1.39266e-05
127 *2351:RESET_B *134:173 4.40595e-05
128 *2357:RESET_B *134:224 0.00018077
129 *20:12 *134:65 3.23658e-05
130 *26:10 *134:224 0.000408221
131 *33:26 *389:DIODE 0.000185118
132 *33:26 *134:75 2.18985e-05
133 *44:10 *134:173 0.00137575
134 *47:22 *134:111 0.000165211
135 *48:8 *2242:C 0.000221634
136 *58:18 *134:113 0.00151376
137 *58:18 *134:126 0.000189441
138 *67:26 *134:113 0.000240773
139 *88:12 *134:8 0.000125371
140 *88:12 *134:10 0.000297296
141 *88:12 *134:16 0.00019702
142 *95:46 *134:173 0.00074031
143 *100:50 *134:224 3.54498e-05
144 *100:75 *134:224 1.03904e-05
145 *100:125 *134:173 0.00018705
146 *111:10 *134:141 0.000200413
147 *113:8 *134:141 0.000104227
148 *113:32 *2242:C 0.000304394
149 *125:24 *134:224 1.16341e-05
150 *126:20 *134:47 6.09572e-05
151 *126:22 *378:DIODE 5.71472e-05
152 *126:22 *134:47 5.52302e-05
153 *130:38 *134:105 1.48555e-05
154 *130:52 *134:103 1.90111e-05
155 *131:18 *134:16 0.000252557
156 *132:18 *134:103 2.52319e-05
*RES
1 *2239:X *134:6 13.8 
2 *134:6 *134:8 6.19643 
3 *134:8 *134:10 3.76786 
4 *134:10 *134:16 21.6964 
5 *134:16 *376:DIODE 9.3 
6 *134:16 *2240:B 10.6571 
7 *134:10 *134:32 6.67857 
8 *134:32 *382:DIODE 9.3 
9 *134:32 *134:39 42.8393 
10 *134:39 *134:47 33.3393 
11 *134:47 *2241:A2 9.3 
12 *134:47 *378:DIODE 11.8893 
13 *134:39 *134:65 7.71429 
14 *134:65 *134:75 17 
15 *134:75 *2245:D 9.3 
16 *134:75 *389:DIODE 11.0679 
17 *134:65 *134:103 39.1071 
18 *134:103 *134:105 15 
19 *134:105 *134:111 35 
20 *134:111 *134:113 19.25 
21 *134:113 *2253:B 15.5679 
22 *134:113 *134:126 7.05357 
23 *134:126 *404:DIODE 9.3 
24 *134:126 *134:141 15.5 
25 *134:141 *430:DIODE 9.3 
26 *134:141 *2264:A 11.3893 
27 *134:105 *134:159 7.05357 
28 *134:159 *134:161 0.535714 
29 *134:161 *134:173 48.5357 
30 *134:173 *134:175 2.17857 
31 *134:175 *406:DIODE 10.6571 
32 *134:175 *2254:A1 9.3 
33 *134:161 *451:DIODE 9.3 
34 *134:159 *2272:A 11.4786 
35 *134:8 *2242:C 17.6214 
36 *134:6 *134:224 27.5893 
37 *134:224 *2250:A 12.3 
38 *134:224 *398:DIODE 9.3 
*END

*D_NET *135 0.00519783
*CONN
*I *2243:A I *D sky130_fd_sc_hd__nor2_2
*I *2241:Y O *D sky130_fd_sc_hd__a21oi_1
*CAP
1 *2243:A 0
2 *2241:Y 0.00102857
3 *135:16 0.00102857
4 *135:16 *483:DIODE 0.000314572
5 *135:16 *2288:B1 0.000182811
6 *135:16 *156:91 0.000403392
7 *135:16 *164:18 2.85234e-05
8 *135:16 *179:82 0.000322784
9 *135:16 *179:100 0.00052196
10 *135:16 *180:20 9.84229e-05
11 *135:16 *181:78 0.000393936
12 *135:16 *199:142 0.000393936
13 *135:16 *203:12 7.69499e-05
14 *135:16 *205:14 0.000403392
*RES
1 *2241:Y *135:16 46.4429 
2 *135:16 *2243:A 9.3 
*END

*D_NET *136 0.0331105
*CONN
*I *383:DIODE I *D sky130_fd_sc_hd__diode_2
*I *2243:B I *D sky130_fd_sc_hd__nor2_2
*I *385:DIODE I *D sky130_fd_sc_hd__diode_2
*I *2244:B I *D sky130_fd_sc_hd__or2_1
*I *2242:X O *D sky130_fd_sc_hd__and3_2
*CAP
1 *383:DIODE 8.82118e-05
2 *2243:B 0
3 *385:DIODE 0.000171363
4 *2244:B 0
5 *2242:X 3.49437e-05
6 *136:50 0.00841049
7 *136:16 0.00169721
8 *136:14 0.0019963
9 *136:10 0.00882767
10 *383:DIODE *203:12 0.000123924
11 *385:DIODE *384:DIODE 5.53499e-05
12 *385:DIODE *2216:A 0.000127446
13 *385:DIODE *192:140 4.1331e-06
14 *136:10 *193:10 0.000115369
15 *136:14 *158:22 0
16 *136:16 *2231:D 0.000243602
17 *136:16 *2259:B 8.91505e-05
18 *136:16 *148:12 1.74966e-05
19 *136:16 *179:170 0.00076081
20 *136:16 *187:74 0.00276519
21 *136:16 *187:78 0.000911825
22 *136:16 *192:24 4.66368e-05
23 *136:16 *192:140 0.000105807
24 *136:50 *153:20 0.000172763
25 *136:50 *158:22 0
26 *136:50 *163:60 5.43903e-05
27 *136:50 *170:34 0
28 *136:50 *218:34 0
29 *28:20 *136:50 0.000139652
30 *30:16 *136:50 0
31 *36:26 *136:50 0
32 *42:24 *136:50 3.48509e-05
33 *54:12 *136:50 0
34 *66:24 *136:50 5.29004e-05
35 *75:32 *136:50 0.00014192
36 *80:26 *136:50 0.000222182
37 *97:24 *136:50 9.34324e-05
38 *100:46 *136:16 0.000999369
39 *101:24 *136:50 0.000130083
40 *106:14 *136:10 0.000115369
41 *106:134 *385:DIODE 0.000140933
42 *109:28 *136:50 0
43 *116:78 *385:DIODE 1.09026e-05
44 *116:78 *136:16 0.000354096
45 *125:24 *136:16 0.00309703
46 *127:20 *136:16 0.000655915
47 *129:10 *136:16 0.000101758
*RES
1 *2242:X *136:10 18.7011 
2 *136:10 *136:14 4.538 
3 *136:14 *136:16 67.3661 
4 *136:16 *2244:B 13.8 
5 *136:16 *385:DIODE 17.4071 
6 *136:10 *136:50 38.2471 
7 *136:50 *2243:B 9.3 
8 *136:50 *383:DIODE 11.4786 
*END

*D_NET *137 0.00534632
*CONN
*I *2246:B I *D sky130_fd_sc_hd__and3_1
*I *2244:X O *D sky130_fd_sc_hd__or2_1
*CAP
1 *2246:B 0.00152995
2 *2244:X 0.00152995
3 *49:8 *2246:B 0.00221767
4 *118:22 *2246:B 6.87574e-05
*RES
1 *2244:X *2246:B 40.9036 
*END

*D_NET *138 0.0269217
*CONN
*I *391:DIODE I *D sky130_fd_sc_hd__diode_2
*I *2246:C I *D sky130_fd_sc_hd__and3_1
*I *393:DIODE I *D sky130_fd_sc_hd__diode_2
*I *2248:B_N I *D sky130_fd_sc_hd__or2b_1
*I *2245:Y O *D sky130_fd_sc_hd__nand4_2
*CAP
1 *391:DIODE 0
2 *2246:C 0.000220032
3 *393:DIODE 0
4 *2248:B_N 5.3346e-05
5 *2245:Y 0.00548485
6 *138:54 0.000448219
7 *138:32 0.000576848
8 *138:28 0.00156012
9 *138:26 0.00629328
10 *2248:B_N *191:14 0.000197516
11 *138:26 *2245:A 5.96006e-05
12 *138:26 *2245:B 0.000169454
13 *138:26 *2245:C 1.21258e-05
14 *138:26 *149:32 0.000546618
15 *138:26 *152:20 0.000105927
16 *138:26 *169:160 4.99283e-06
17 *138:26 *171:86 0.00148831
18 *138:26 *196:14 0
19 *138:26 *196:70 0
20 *138:26 *202:24 0.000132592
21 *138:26 *212:20 0.000121549
22 *138:28 *2247:A 0
23 *138:28 *145:10 0.00167165
24 *138:28 *201:69 0.000316672
25 *138:32 *303:DIODE 0.000182729
26 *138:32 *362:DIODE 1.65914e-05
27 *138:32 *2211:A 7.88507e-05
28 *138:32 *185:114 0.000301094
29 *138:32 *211:96 0.00060989
30 *138:54 *2247:A 0
31 *138:54 *145:10 0.000298616
32 *286:DIODE *138:32 9.86486e-06
33 *365:DIODE *138:32 0.000354073
34 *2341:RESET_B *138:26 0
35 *2379:A *138:26 0.000499495
36 *21:24 *138:26 0.000406121
37 *31:14 *2248:B_N 0.000199045
38 *33:26 *138:26 0.000110316
39 *53:12 *138:26 0.000447899
40 *60:12 *138:26 0.000411011
41 *75:32 *138:26 0.00047903
42 *75:38 *138:26 1.84897e-05
43 *97:24 *138:26 0.00021643
44 *101:24 *138:28 0.000114258
45 *106:108 *138:32 7.36469e-05
46 *106:110 *138:32 2.85234e-05
47 *117:26 *138:26 0.000114617
48 *118:22 *2246:C 4.70078e-05
49 *118:22 *138:54 1.58163e-05
50 *122:73 *2246:C 0.000168382
51 *127:20 *138:26 0.000123255
52 *129:12 *138:32 0.00213297
*RES
1 *2245:Y *138:26 47.8002 
2 *138:26 *138:28 21.8304 
3 *138:28 *138:32 25.1607 
4 *138:32 *2248:B_N 20.8536 
5 *138:32 *393:DIODE 9.3 
6 *138:28 *138:54 9.10714 
7 *138:54 *2246:C 12.1839 
8 *138:54 *391:DIODE 9.3 
*END

*D_NET *139 0.0039133
*CONN
*I *2247:A I *D sky130_fd_sc_hd__buf_1
*I *2246:X O *D sky130_fd_sc_hd__and3_1
*CAP
1 *2247:A 0.000855289
2 *2246:X 0.000855289
3 *2247:A *145:8 0.000228558
4 *2247:A *145:10 0
5 *2247:A *201:69 0.000197622
6 *82:12 *2247:A 0.00133186
7 *118:22 *2247:A 0.00044468
8 *138:28 *2247:A 0
9 *138:54 *2247:A 0
*RES
1 *2246:X *2247:A 49.2607 
*END

*D_NET *140 0.0123392
*CONN
*I *401:DIODE I *D sky130_fd_sc_hd__diode_2
*I *2251:B I *D sky130_fd_sc_hd__and3_1
*I *2248:X O *D sky130_fd_sc_hd__or2b_1
*CAP
1 *401:DIODE 0
2 *2251:B 0.000206391
3 *2248:X 0.000675768
4 *140:16 0.000206391
5 *140:14 0.00333614
6 *140:12 0.0040119
7 *2251:B *142:14 2.51343e-06
8 *2251:B *143:12 6.35511e-06
9 *140:12 *392:DIODE 5.49995e-05
10 *140:14 *142:14 0
11 *140:14 *147:26 0
12 *140:14 *152:44 0.00105293
13 *140:14 *153:61 0.00111679
14 *140:14 *201:16 0.000738272
15 *2251:A *2251:B 6.85998e-05
16 *17:10 *140:14 0.000558276
17 *67:16 *140:14 0.000303859
18 *114:10 *140:14 0
19 *116:78 *140:14 0
*RES
1 *2248:X *140:12 23.1036 
2 *140:12 *140:14 73.8929 
3 *140:14 *140:16 4.5 
4 *140:16 *2251:B 11.8893 
5 *140:16 *401:DIODE 9.3 
*END

*D_NET *141 0.0304759
*CONN
*I *2254:A2 I *D sky130_fd_sc_hd__a21oi_1
*I *407:DIODE I *D sky130_fd_sc_hd__diode_2
*I *2253:C I *D sky130_fd_sc_hd__and3_2
*I *405:DIODE I *D sky130_fd_sc_hd__diode_2
*I *428:DIODE I *D sky130_fd_sc_hd__diode_2
*I *2263:B I *D sky130_fd_sc_hd__and3_1
*I *399:DIODE I *D sky130_fd_sc_hd__diode_2
*I *2250:B I *D sky130_fd_sc_hd__nand2_1
*I *2249:X O *D sky130_fd_sc_hd__and4_2
*CAP
1 *2254:A2 2.16645e-05
2 *407:DIODE 5.15095e-05
3 *2253:C 0.000256297
4 *405:DIODE 0
5 *428:DIODE 0
6 *2263:B 4.37578e-05
7 *399:DIODE 0
8 *2250:B 0.000152283
9 *2249:X 0.000117408
10 *141:114 0.00142986
11 *141:92 0.0011696
12 *141:77 0.00104147
13 *141:68 0.00125124
14 *141:58 0.00334587
15 *141:40 0.00115691
16 *141:26 0.00295092
17 *141:8 0.00297356
18 *407:DIODE *2254:B1 0.000230155
19 *407:DIODE *210:58 0.000146724
20 *2253:C *144:16 6.03304e-05
21 *2254:A2 *210:58 5.33433e-05
22 *2263:B *181:194 2.84109e-05
23 *141:8 *2249:C 1.08392e-05
24 *141:8 *192:61 0
25 *141:8 *206:56 0
26 *141:26 *612:DIODE 0.000209808
27 *141:26 *2221:A1 5.33005e-05
28 *141:26 *191:52 0.000136682
29 *141:26 *192:61 3.23544e-05
30 *141:26 *193:22 0.000136951
31 *141:26 *198:68 0.000179615
32 *141:26 *206:40 0.000177672
33 *141:26 *213:79 4.08637e-05
34 *141:26 *213:92 0.000462824
35 *141:26 *215:10 0.000138436
36 *141:26 *218:76 9.41642e-05
37 *141:40 *187:66 0.000382821
38 *141:40 *191:40 0.000262841
39 *141:40 *213:58 0.000569081
40 *141:40 *214:38 0.000570667
41 *141:40 *214:53 9.54798e-06
42 *141:58 *2189:A 9.97164e-05
43 *141:58 *173:52 0.000124022
44 *141:58 *178:85 0.000119738
45 *141:58 *199:92 2.42526e-05
46 *141:58 *206:56 0
47 *141:58 *206:88 0
48 *141:58 *207:37 0
49 *141:68 *2382:A 1.47728e-05
50 *141:68 *152:20 0.00189429
51 *141:68 *154:10 4.33002e-05
52 *141:68 *158:22 0
53 *141:68 *163:60 2.35126e-05
54 *141:77 *152:20 0.000140088
55 *141:77 *181:194 1.51489e-05
56 *141:92 *144:16 0.000120403
57 *141:92 *152:20 0.000459016
58 *141:92 *177:157 9.24234e-05
59 *141:92 *177:170 0.000155817
60 *141:92 *199:74 0.000476274
61 *141:92 *200:78 0.00028855
62 *141:114 *2183:A 0.000600366
63 *141:114 *2183:B 3.72685e-05
64 *141:114 *2382:A 2.30314e-05
65 *141:114 *163:60 0
66 *141:114 *184:114 0
67 *141:114 *206:88 0
68 *141:114 *207:37 0
69 *238:DIODE *141:114 5.7836e-06
70 *345:DIODE *141:92 5.33005e-05
71 *406:DIODE *407:DIODE 2.12005e-05
72 *406:DIODE *2254:A2 2.28598e-05
73 *2182:A *141:114 8.49755e-06
74 *2250:A *2250:B 0.000143505
75 *2250:A *141:40 5.75764e-05
76 *2348:RESET_B *141:114 0
77 *2351:RESET_B *141:114 0
78 *2368:D *141:58 8.06081e-05
79 *17:10 *141:40 0.000101915
80 *36:26 *141:68 1.36734e-05
81 *89:12 *141:8 0.00017885
82 *89:12 *141:58 0.000531627
83 *95:46 *141:114 0
84 *106:88 *141:92 0.000290271
85 *111:10 *2253:C 0.000143278
86 *113:8 *2253:C 0.000272665
87 *114:6 *141:40 0.00130769
88 *115:60 *141:26 0.00198841
89 *123:8 *141:26 0.000242399
90 *133:16 *141:26 0.000209961
91 *134:175 *2254:A2 3.18676e-05
92 *134:224 *141:40 6.81786e-05
*RES
1 *2249:X *141:8 16.2018 
2 *141:8 *141:26 42.8772 
3 *141:26 *141:40 38.1071 
4 *141:40 *2250:B 12.6393 
5 *141:40 *399:DIODE 9.3 
6 *141:8 *141:58 17.7321 
7 *141:58 *141:68 14.9742 
8 *141:68 *2263:B 9.83571 
9 *141:68 *141:77 1.76786 
10 *141:77 *428:DIODE 9.3 
11 *141:77 *141:92 27.3929 
12 *141:92 *405:DIODE 9.3 
13 *141:92 *2253:C 24.3536 
14 *141:58 *141:114 28.4554 
15 *141:114 *407:DIODE 11.8893 
16 *141:114 *2254:A2 10.2464 
*END

*D_NET *142 0.0040688
*CONN
*I *2251:C I *D sky130_fd_sc_hd__and3_1
*I *2250:Y O *D sky130_fd_sc_hd__nand2_1
*CAP
1 *2251:C 0
2 *2250:Y 0.00129799
3 *142:14 0.00129799
4 *142:14 *143:12 2.0954e-05
5 *142:14 *167:48 0.000424259
6 *142:14 *201:16 0.000818965
7 *142:14 *217:14 0.000177612
8 *2250:A *142:14 2.85234e-05
9 *2251:B *142:14 2.51343e-06
10 *140:14 *142:14 0
*RES
1 *2250:Y *142:14 47.9964 
2 *142:14 *2251:C 9.3 
*END

*D_NET *143 0.0182252
*CONN
*I *402:DIODE I *D sky130_fd_sc_hd__diode_2
*I *2252:A I *D sky130_fd_sc_hd__buf_1
*I *2251:X O *D sky130_fd_sc_hd__and3_1
*CAP
1 *402:DIODE 8.46381e-05
2 *2252:A 0
3 *2251:X 0.00126258
4 *143:28 0.00108392
5 *143:20 0.00209814
6 *143:12 0.00236143
7 *143:12 *190:46 0.000812247
8 *143:12 *190:52 0.000354105
9 *143:20 *171:116 0.000182533
10 *143:20 *181:30 0.000136951
11 *143:20 *183:37 0.000392545
12 *143:20 *190:46 0.000106343
13 *143:20 *194:47 0.000393445
14 *143:20 *198:14 0.00024866
15 *143:20 *219:26 0.00111072
16 *143:28 *589:DIODE 5.33005e-05
17 *143:28 *606:DIODE 5.33005e-05
18 *143:28 *171:116 0.000114673
19 *143:28 *178:34 3.0426e-05
20 *143:28 *180:52 0.000626855
21 *400:DIODE *143:12 5.47001e-05
22 *2240:B *143:12 6.42095e-05
23 *2251:A *143:12 0.000285026
24 *2251:B *143:12 6.35511e-06
25 *2364:D *143:28 0.000481725
26 *2374:D *143:28 2.59355e-05
27 *2374:RESET_B *143:28 9.22093e-05
28 *27:8 *143:12 0.000505662
29 *27:8 *143:20 0.000355555
30 *30:16 *143:28 2.19683e-05
31 *35:22 *143:20 0.00318624
32 *35:30 *143:28 0.000816077
33 *100:14 *143:12 0.00043289
34 *100:16 *143:12 0.000178061
35 *134:16 *143:12 0.000190848
36 *142:14 *143:12 2.0954e-05
*RES
1 *2251:X *143:12 37.1036 
2 *143:12 *143:20 47.2679 
3 *143:20 *143:28 22.7679 
4 *143:28 *2252:A 9.3 
5 *143:28 *402:DIODE 10.6571 
*END

*D_NET *144 0.0340914
*CONN
*I *418:DIODE I *D sky130_fd_sc_hd__diode_2
*I *414:DIODE I *D sky130_fd_sc_hd__diode_2
*I *2257:A2 I *D sky130_fd_sc_hd__a21o_1
*I *409:DIODE I *D sky130_fd_sc_hd__diode_2
*I *412:DIODE I *D sky130_fd_sc_hd__diode_2
*I *2256:B I *D sky130_fd_sc_hd__xor2_1
*I *2255:A I *D sky130_fd_sc_hd__nor2_1
*I *2258:C I *D sky130_fd_sc_hd__nand3_2
*I *2253:X O *D sky130_fd_sc_hd__and3_2
*CAP
1 *418:DIODE 0
2 *414:DIODE 0.000144784
3 *2257:A2 1.41633e-05
4 *409:DIODE 0
5 *412:DIODE 4.33394e-05
6 *2256:B 0.000284031
7 *2255:A 0.000180652
8 *2258:C 7.88981e-05
9 *2253:X 0.00223312
10 *144:93 0.00116635
11 *144:56 0.00102794
12 *144:45 0.000919462
13 *144:43 0.00121021
14 *144:37 0.00294555
15 *144:26 0.000860048
16 *144:24 0.00062043
17 *144:16 0.00283858
18 *412:DIODE *166:30 1.84865e-05
19 *414:DIODE *413:DIODE 3.0166e-05
20 *414:DIODE *2294:A 9.41642e-05
21 *414:DIODE *167:24 4.87953e-05
22 *2255:A *2255:B 0.000180777
23 *2255:A *145:14 5.19805e-05
24 *2256:B *2279:A 7.25873e-06
25 *2256:B *2279:B 1.35553e-05
26 *2257:A2 *167:24 1.40034e-05
27 *2258:C *2258:A 8.56851e-05
28 *2258:C *196:117 0.0001399
29 *2258:C *197:68 9.71197e-05
30 *2258:C *197:90 0.000210223
31 *144:16 *2271:A 0.000394131
32 *144:16 *177:126 0.000161103
33 *144:16 *177:136 0.000267002
34 *144:16 *177:157 0.000356594
35 *144:16 *177:170 0.000158902
36 *144:16 *182:136 6.57914e-05
37 *144:16 *202:94 0.000180777
38 *144:24 *185:14 0.000265875
39 *144:24 *185:78 0.00016284
40 *144:24 *196:117 0.00164722
41 *144:24 *197:90 0.00186693
42 *144:24 *205:68 0.000430429
43 *144:26 *196:117 4.08637e-05
44 *144:26 *197:90 5.33005e-05
45 *144:37 *171:66 0.000141167
46 *144:37 *172:188 0.000212049
47 *144:37 *197:20 9.54385e-05
48 *144:37 *197:44 0.00105085
49 *144:43 *145:14 0.00203525
50 *144:43 *186:10 0.000737204
51 *144:43 *197:20 0.000103267
52 *144:45 *2255:B 0
53 *144:56 *2242:A 0.000215441
54 *144:56 *158:22 0.000193399
55 *144:56 *191:14 0.000232259
56 *144:56 *191:16 0.00082306
57 *144:93 *507:DIODE 0.000260574
58 *144:93 *167:24 0.000553168
59 *2253:C *144:16 6.03304e-05
60 *26:18 *144:93 0.000859461
61 *26:32 *144:93 0.000464471
62 *33:12 *2256:B 5.33005e-05
63 *55:20 *144:37 0.000419249
64 *55:20 *144:43 0.000101545
65 *93:10 *144:37 0
66 *97:24 *144:37 0.000114398
67 *106:10 *144:56 0.000425126
68 *106:14 *2256:B 0.000217505
69 *106:14 *144:56 0.00157138
70 *113:8 *144:16 7.83659e-05
71 *116:12 *2256:B 0.000106903
72 *116:12 *144:56 0.00034321
73 *116:14 *144:56 1.68546e-05
74 *117:26 *144:37 0
75 *118:28 *144:37 0.000874351
76 *141:92 *144:16 0.000120403
*RES
1 *2253:X *144:16 48.3536 
2 *144:16 *144:24 32.7857 
3 *144:24 *144:26 0.535714 
4 *144:26 *2258:C 12.3 
5 *144:26 *144:37 27.0893 
6 *144:37 *144:43 32.6607 
7 *144:43 *144:45 0.732143 
8 *144:45 *2255:A 12.7107 
9 *144:45 *144:56 30.4286 
10 *144:56 *2256:B 19.675 
11 *144:56 *412:DIODE 14.3357 
12 *144:43 *409:DIODE 9.3 
13 *144:37 *144:93 22.4464 
14 *144:93 *2257:A2 9.72857 
15 *144:93 *414:DIODE 11.8893 
16 *144:24 *418:DIODE 9.3 
*END

*D_NET *145 0.0175626
*CONN
*I *410:DIODE I *D sky130_fd_sc_hd__diode_2
*I *2255:B I *D sky130_fd_sc_hd__nor2_1
*I *2254:Y O *D sky130_fd_sc_hd__a21oi_1
*CAP
1 *410:DIODE 0
2 *2255:B 0.000204803
3 *2254:Y 0.00118714
4 *145:14 0.00181521
5 *145:10 0.00336717
6 *145:8 0.0029439
7 *145:8 *210:58 0.0014338
8 *145:10 *162:8 0.000439063
9 *145:10 *178:97 0
10 *145:10 *201:69 0
11 *2247:A *145:8 0.000228558
12 *2247:A *145:10 0
13 *2255:A *2255:B 0.000180777
14 *2255:A *145:14 5.19805e-05
15 *2345:D *145:10 0.00019516
16 *2361:D *2255:B 6.05161e-06
17 *73:16 *145:10 0.000347321
18 *101:24 *145:10 0.000131059
19 *118:22 *145:8 5.36e-05
20 *122:45 *145:10 0.000808233
21 *122:73 *145:10 0.00016327
22 *138:28 *145:10 0.00167165
23 *138:54 *145:10 0.000298616
24 *144:43 *145:14 0.00203525
25 *144:45 *2255:B 0
*RES
1 *2254:Y *145:8 30.7643 
2 *145:8 *145:10 48.6964 
3 *145:10 *145:14 25.9821 
4 *145:14 *2255:B 13.05 
5 *145:14 *410:DIODE 9.3 
*END

*D_NET *146 0.0134007
*CONN
*I *2259:B I *D sky130_fd_sc_hd__and3_1
*I *2257:X O *D sky130_fd_sc_hd__a21o_1
*CAP
1 *2259:B 9.93548e-05
2 *2257:X 0.000970167
3 *146:28 0.00177079
4 *146:16 0.00264161
5 *2259:B *147:26 0.000124427
6 *2259:B *148:12 3.29297e-05
7 *146:16 *2257:B1 0.000260574
8 *146:16 *2332:A 0.000253285
9 *146:16 *172:62 0.000166357
10 *146:16 *197:24 0.000477109
11 *146:28 *501:DIODE 2.6269e-05
12 *146:28 *182:26 0.00105765
13 *146:28 *187:20 0.00234094
14 *146:28 *187:34 2.15613e-05
15 *146:28 *192:24 0.000178847
16 *146:28 *195:50 0.000116824
17 *146:28 *195:90 0.00193956
18 *95:24 *146:16 0.000663135
19 *100:46 *2259:B 3.31595e-05
20 *100:46 *146:28 0.000136958
21 *136:16 *2259:B 8.91505e-05
*RES
1 *2257:X *146:16 37.1214 
2 *146:16 *146:28 47.9286 
3 *146:28 *2259:B 16.6571 
*END

*D_NET *147 0.0161442
*CONN
*I *420:DIODE I *D sky130_fd_sc_hd__diode_2
*I *2259:C I *D sky130_fd_sc_hd__and3_1
*I *423:DIODE I *D sky130_fd_sc_hd__diode_2
*I *2261:B I *D sky130_fd_sc_hd__xnor2_1
*I *2258:Y O *D sky130_fd_sc_hd__nand3_2
*CAP
1 *420:DIODE 0
2 *2259:C 0
3 *423:DIODE 0
4 *2261:B 0.000220353
5 *2258:Y 0.00178021
6 *147:26 0.00153217
7 *147:18 0.00145412
8 *147:10 0.0008482
9 *147:8 0.00248611
10 *2261:B *2261:A 0.000274392
11 *2261:B *198:44 0.000119114
12 *147:8 *417:DIODE 5.33334e-05
13 *147:8 *2258:A 1.92789e-05
14 *147:10 *179:194 0.000204675
15 *147:10 *192:26 0.000709337
16 *147:10 *192:140 0.00122034
17 *147:26 *167:38 4.51198e-05
18 *147:26 *167:44 1.9774e-05
19 *2251:A *147:26 2.30913e-05
20 *2259:A *147:18 0.000151768
21 *2259:A *147:26 6.75203e-05
22 *2259:B *147:26 0.000124427
23 *2361:D *147:10 0.00062809
24 *17:10 *147:26 0
25 *17:22 *147:26 0
26 *26:10 *147:10 0.000480168
27 *26:10 *147:18 2.04626e-05
28 *35:14 *2261:B 5.5033e-05
29 *35:14 *147:26 0
30 *100:46 *147:26 5.76558e-05
31 *100:75 *147:10 0.000162808
32 *100:75 *147:18 0.000104036
33 *125:26 *147:26 0.00235188
34 *127:20 *147:10 0.000186052
35 *127:20 *147:26 0.000553711
36 *134:224 *147:18 0.000158111
37 *134:224 *147:26 3.28615e-05
38 *140:14 *147:26 0
*RES
1 *2258:Y *147:8 40.6214 
2 *147:8 *147:10 28.6607 
3 *147:10 *147:18 8.41071 
4 *147:18 *147:26 42.5893 
5 *147:26 *2261:B 14.3893 
6 *147:26 *423:DIODE 9.3 
7 *147:18 *2259:C 9.3 
8 *147:10 *420:DIODE 13.8 
*END

*D_NET *148 0.0173261
*CONN
*I *2260:A I *D sky130_fd_sc_hd__buf_1
*I *421:DIODE I *D sky130_fd_sc_hd__diode_2
*I *2259:X O *D sky130_fd_sc_hd__and3_1
*CAP
1 *2260:A 8.71266e-05
2 *421:DIODE 0
3 *2259:X 0.00075387
4 *148:20 0.000144714
5 *148:14 0.00287897
6 *148:12 0.00357525
7 *2260:A *2391:A 2.28598e-05
8 *2260:A *179:14 0.000142004
9 *148:12 *187:74 0.000651561
10 *148:14 *2324:A 0.000136951
11 *148:14 *162:20 0.00219975
12 *148:14 *172:214 0.000416471
13 *148:14 *178:74 0.000159159
14 *148:14 *178:95 0.000431343
15 *2217:A *148:14 9.11536e-05
16 *2259:B *148:12 3.29297e-05
17 *2361:RESET_B *148:14 0.000319878
18 *17:10 *148:12 0
19 *47:22 *148:14 0.00282827
20 *57:12 *2260:A 0.000139491
21 *57:12 *148:20 0.000148196
22 *106:68 *148:20 0.000148196
23 *127:20 *148:12 0.000288039
24 *134:111 *148:14 0.00157313
25 *134:224 *148:12 0.00013926
26 *136:16 *148:12 1.74966e-05
*RES
1 *2259:X *148:12 36.175 
2 *148:12 *148:14 68.7143 
3 *148:14 *148:20 10.9464 
4 *148:20 *421:DIODE 9.3 
5 *148:20 *2260:A 11.8 
*END

*D_NET *149 0.0219692
*CONN
*I *2263:C I *D sky130_fd_sc_hd__and3_1
*I *429:DIODE I *D sky130_fd_sc_hd__diode_2
*I *2262:X O *D sky130_fd_sc_hd__and3_1
*CAP
1 *2263:C 0.000119237
2 *429:DIODE 0
3 *2262:X 3.82742e-05
4 *149:32 0.00395429
5 *149:16 0.00587632
6 *149:8 0.00207954
7 *2263:C *2263:A 5.33005e-05
8 *2263:C *150:10 6.04072e-05
9 *2263:C *181:194 8.43535e-06
10 *149:8 *182:46 5.71472e-05
11 *149:16 *334:DIODE 0.00019384
12 *149:16 *153:20 0.000515936
13 *149:16 *195:72 0.00157308
14 *149:16 *209:14 0.000228136
15 *149:16 *209:142 0
16 *149:32 *2272:B 1.39148e-05
17 *149:32 *152:20 0.00110827
18 *149:32 *177:104 0.000110632
19 *149:32 *191:52 0.000130443
20 *149:32 *198:68 0.000302859
21 *149:32 *206:40 0.000165754
22 *2218:B *149:16 0.000313514
23 *2365:RESET_B *149:32 7.6644e-05
24 *19:12 *149:32 0.00039087
25 *27:14 *149:16 0.0018157
26 *75:32 *149:16 0.000256512
27 *96:46 *149:32 0.000280954
28 *97:24 *149:32 0.00118222
29 *101:24 *149:32 0
30 *120:14 *149:16 2.18118e-05
31 *122:35 *149:16 0.000251676
32 *127:20 *149:32 0.000242825
33 *138:26 *149:32 0.000546618
*RES
1 *2262:X *149:8 14.3357 
2 *149:8 *149:16 46.4802 
3 *149:16 *149:32 22.8706 
4 *149:32 *429:DIODE 9.3 
5 *149:32 *2263:C 10.7286 
*END

*D_NET *150 0.0100952
*CONN
*I *2264:B I *D sky130_fd_sc_hd__and2_2
*I *2272:B I *D sky130_fd_sc_hd__and3_2
*I *2263:X O *D sky130_fd_sc_hd__and3_1
*CAP
1 *2264:B 0
2 *2272:B 0.000858073
3 *2263:X 8.4132e-05
4 *150:35 0.00165297
5 *150:10 0.00259517
6 *2272:B *2391:A 0.000561063
7 *2272:B *154:10 0.000651248
8 *2272:B *177:8 6.46925e-05
9 *2272:B *177:12 2.09722e-05
10 *2272:B *177:84 5.4087e-05
11 *2272:B *177:95 2.66227e-05
12 *2272:B *177:104 3.43988e-06
13 *150:10 *181:194 7.1959e-05
14 *150:35 *2207:A 0.000165987
15 *150:35 *151:22 2.87296e-05
16 *150:35 *154:10 0.000544955
17 *150:35 *177:124 1.78353e-05
18 *150:35 *183:150 0
19 *150:35 *216:12 0
20 *2263:C *150:10 6.04072e-05
21 *2264:A *150:35 0.000143633
22 *2365:RESET_B *2272:B 9.80405e-05
23 *2365:RESET_B *150:35 0.000370427
24 *81:8 *150:35 0.00182125
25 *119:115 *150:35 1.27059e-05
26 *129:39 *150:35 7.69702e-05
27 *134:141 *150:35 9.58624e-05
28 *149:32 *2272:B 1.39148e-05
*RES
1 *2263:X *150:10 15.5857 
2 *150:10 *2272:B 29.5321 
3 *150:10 *150:35 43.0536 
4 *150:35 *2264:B 9.3 
*END

*D_NET *151 0.0290799
*CONN
*I *446:DIODE I *D sky130_fd_sc_hd__diode_2
*I *434:DIODE I *D sky130_fd_sc_hd__diode_2
*I *2266:A2 I *D sky130_fd_sc_hd__a21oi_2
*I *2267:C I *D sky130_fd_sc_hd__and3_1
*I *432:DIODE I *D sky130_fd_sc_hd__diode_2
*I *2265:B I *D sky130_fd_sc_hd__xor2_1
*I *438:DIODE I *D sky130_fd_sc_hd__diode_2
*I *2270:D I *D sky130_fd_sc_hd__and4_1
*I *2264:X O *D sky130_fd_sc_hd__and2_2
*CAP
1 *446:DIODE 0
2 *434:DIODE 0.000225849
3 *2266:A2 2.23854e-05
4 *2267:C 3.63272e-05
5 *432:DIODE 0
6 *2265:B 0.000126031
7 *438:DIODE 0.000294928
8 *2270:D 7.55036e-05
9 *2264:X 0.00120222
10 *151:121 0.000794796
11 *151:96 0.000374588
12 *151:92 0.0017037
13 *151:71 0.00177529
14 *151:69 0.000932425
15 *151:55 0.00242823
16 *151:39 0.00269816
17 *151:28 0.000755401
18 *151:22 0.00128786
19 *434:DIODE *435:DIODE 0.000136682
20 *434:DIODE *2266:A1 5.12625e-05
21 *434:DIODE *200:134 5.19805e-05
22 *438:DIODE *154:10 5.5764e-05
23 *438:DIODE *172:21 0
24 *438:DIODE *199:122 0.000265027
25 *438:DIODE *218:50 9.11048e-06
26 *2265:B *2265:A 0.00040015
27 *2266:A2 *435:DIODE 0
28 *2270:D *204:28 4.53446e-05
29 *151:22 *443:DIODE 0.000142856
30 *151:22 *444:DIODE 9.60939e-05
31 *151:22 *2270:A 0.000223546
32 *151:22 *184:144 2.46742e-05
33 *151:22 *184:155 0.000108535
34 *151:22 *195:132 0.000866627
35 *151:22 *204:28 3.38965e-05
36 *151:22 *211:66 5.49489e-05
37 *151:28 *2270:A 8.28852e-05
38 *151:28 *2270:B 3.69047e-06
39 *151:28 *2270:C 3.27961e-05
40 *151:28 *211:66 0.000227636
41 *151:39 *2271:A 0.000122006
42 *151:39 *2271:D 3.50847e-05
43 *151:39 *199:10 2.26791e-05
44 *151:39 *199:40 9.85424e-06
45 *151:39 *204:28 0
46 *151:55 *2280:B 0.000150803
47 *151:55 *154:10 0
48 *151:55 *204:28 0
49 *151:55 *204:30 0
50 *151:55 *204:45 5.49544e-05
51 *151:55 *204:57 9.41642e-05
52 *151:69 *154:10 9.35732e-05
53 *151:69 *172:46 0.000138826
54 *151:69 *175:168 0.000192595
55 *151:69 *203:50 0
56 *151:69 *211:38 3.0833e-05
57 *151:71 *154:10 4.44514e-05
58 *151:71 *218:50 4.30573e-05
59 *151:92 *2186:B 3.69047e-06
60 *151:92 *2193:B 9.58632e-05
61 *151:92 *2381:A 0.000113522
62 *151:92 *153:20 0.000156292
63 *151:92 *175:16 9.66977e-05
64 *151:92 *175:24 5.58405e-05
65 *151:92 *175:33 0.000341223
66 *151:92 *183:12 9.00645e-05
67 *151:92 *183:51 0
68 *151:92 *183:101 0
69 *151:92 *190:88 0
70 *151:92 *199:122 3.23206e-05
71 *151:92 *199:134 0.000323505
72 *151:92 *213:12 0
73 *151:92 *218:50 0.000796681
74 *151:96 *164:18 0.000524964
75 *151:121 *2266:A1 5.28427e-05
76 *151:121 *2287:B 5.33065e-05
77 *151:121 *200:78 0.000105514
78 *151:121 *200:134 3.2687e-05
79 *374:DIODE *151:55 0.00012076
80 *2264:A *151:22 6.05161e-06
81 *2352:D *151:121 0.000228514
82 *21:22 *2265:B 0.000115064
83 *33:26 *151:69 0.000306068
84 *36:26 *2265:B 0.000442506
85 *36:26 *151:96 8.27009e-05
86 *41:18 *151:92 0.000317149
87 *80:22 *151:69 0.00041036
88 *103:8 *151:92 0.000628003
89 *104:12 *151:22 0
90 *106:88 *151:22 1.7606e-05
91 *107:10 *151:92 0.00185019
92 *108:20 *151:55 0
93 *113:8 *151:22 0
94 *128:20 *151:39 0.000726318
95 *128:20 *151:55 0.00202743
96 *129:39 *2270:D 0
97 *129:39 *151:39 0
98 *129:41 *151:39 1.43288e-05
99 *129:41 *151:55 6.80354e-05
100 *134:141 *151:22 0.000135028
101 *150:35 *151:22 2.87296e-05
*RES
1 *2264:X *151:22 49.55 
2 *151:22 *151:28 7.10714 
3 *151:28 *2270:D 14.7464 
4 *151:28 *151:39 12.5714 
5 *151:39 *151:55 41.8125 
6 *151:55 *151:69 26.1161 
7 *151:69 *151:71 0.732143 
8 *151:71 *438:DIODE 17.6571 
9 *151:71 *151:92 49.1429 
10 *151:92 *151:96 10.7857 
11 *151:96 *2265:B 14.7643 
12 *151:96 *432:DIODE 9.3 
13 *151:69 *2267:C 14.4295 
14 *151:39 *151:121 13.6607 
15 *151:121 *2266:A2 9.72857 
16 *151:121 *434:DIODE 13.1214 
17 *151:22 *446:DIODE 9.3 
*END

*D_NET *152 0.0219053
*CONN
*I *439:DIODE I *D sky130_fd_sc_hd__diode_2
*I *2268:A I *D sky130_fd_sc_hd__nor2_1
*I *2266:Y O *D sky130_fd_sc_hd__a21oi_2
*CAP
1 *439:DIODE 0
2 *2268:A 0.000275396
3 *2266:Y 0.00298181
4 *152:44 0.000591075
5 *152:36 0.00158195
6 *152:20 0.00424808
7 *2268:A *2268:B 6.38235e-05
8 *2268:A *153:61 6.61173e-05
9 *152:20 *479:DIODE 7.02611e-05
10 *152:20 *2287:C 4.01264e-05
11 *152:20 *154:10 1.95625e-05
12 *152:20 *158:22 0
13 *152:20 *163:14 0.000135028
14 *152:20 *181:194 0.000307722
15 *152:20 *185:30 0.000177941
16 *152:20 *186:117 0.000177941
17 *152:36 *2314:A 3.45371e-05
18 *152:36 *171:34 0.000603344
19 *152:36 *171:41 1.93007e-05
20 *152:36 *171:66 0.000784561
21 *152:36 *201:69 0.000380963
22 *152:36 *209:43 0.000727818
23 *152:44 *153:61 3.06878e-06
24 *17:10 *152:44 0.00106771
25 *37:12 *152:36 0.00250809
26 *82:12 *152:36 0.000155741
27 *96:46 *152:36 0.000105095
28 *127:20 *152:20 0
29 *129:41 *152:20 1.771e-05
30 *138:26 *152:20 0.000105927
31 *140:14 *152:44 0.00105293
32 *141:68 *152:20 0.00189429
33 *141:77 *152:20 0.000140088
34 *141:92 *152:20 0.000459016
35 *149:32 *152:20 0.00110827
*RES
1 *2266:Y *152:20 47.192 
2 *152:20 *152:36 47.3296 
3 *152:36 *152:44 23.0179 
4 *152:44 *2268:A 14.6929 
5 *152:44 *439:DIODE 9.3 
*END

*D_NET *153 0.0199947
*CONN
*I *442:DIODE I *D sky130_fd_sc_hd__diode_2
*I *440:DIODE I *D sky130_fd_sc_hd__diode_2
*I *2268:B I *D sky130_fd_sc_hd__nor2_1
*I *2269:B I *D sky130_fd_sc_hd__xor2_1
*I *2267:X O *D sky130_fd_sc_hd__and3_1
*CAP
1 *442:DIODE 0
2 *440:DIODE 0
3 *2268:B 0.000170153
4 *2269:B 1.06795e-05
5 *2267:X 0.00360904
6 *153:61 0.000635178
7 *153:55 0.00243583
8 *153:30 0.00217104
9 *153:22 0.000322976
10 *153:20 0.00374246
11 *153:20 *2193:B 0.000194512
12 *153:20 *2380:A 4.31928e-05
13 *153:20 *2381:A 3.24834e-05
14 *153:20 *166:64 8.69672e-05
15 *153:20 *175:16 9.66977e-05
16 *153:20 *195:72 0.000508664
17 *153:20 *199:134 0.000262757
18 *153:20 *204:82 8.54445e-05
19 *153:20 *218:34 9.09469e-06
20 *153:20 *218:50 0.000300187
21 *153:22 *204:108 0.000267731
22 *153:30 *184:54 0.000213146
23 *153:55 *526:DIODE 4.00276e-06
24 *153:55 *171:16 2.13481e-06
25 *153:55 *187:34 7.83587e-05
26 *153:55 *201:48 1.17091e-05
27 *2268:A *2268:B 6.38235e-05
28 *2268:A *153:61 6.61173e-05
29 *2357:RESET_B *153:55 0.000304387
30 *2359:D *2269:B 7.20217e-06
31 *2359:D *153:55 0.000851646
32 *17:10 *153:61 0.0011334
33 *75:32 *153:20 0
34 *101:24 *153:20 1.41091e-05
35 *114:10 *2268:B 3.17163e-05
36 *116:48 *2269:B 5.52302e-05
37 *116:48 *153:30 8.27532e-05
38 *131:16 *153:55 4.84313e-05
39 *132:18 *153:20 0
40 *134:8 *153:55 7.6644e-05
41 *136:50 *153:20 0.000172763
42 *140:14 *153:61 0.00111679
43 *149:16 *153:20 0.000515936
44 *151:92 *153:20 0.000156292
45 *152:44 *153:61 3.06878e-06
*RES
1 *2267:X *153:20 47.6224 
2 *153:20 *153:22 2.58929 
3 *153:22 *153:30 12.8036 
4 *153:30 *2269:B 9.83571 
5 *153:30 *153:55 38.5536 
6 *153:55 *153:61 21.0714 
7 *153:61 *2268:B 20.8 
8 *153:61 *440:DIODE 9.3 
9 *153:22 *442:DIODE 9.3 
*END

*D_NET *154 0.0101769
*CONN
*I *2273:A2 I *D sky130_fd_sc_hd__o21ba_1
*I *2270:X O *D sky130_fd_sc_hd__and4_1
*CAP
1 *2273:A2 0.00018634
2 *2270:X 5.59196e-05
3 *154:10 0.0029819
4 *154:8 0.00285148
5 *2273:A2 *2273:A1 5.38711e-05
6 *2273:A2 *189:22 0.000387047
7 *154:8 *2270:B 2.59355e-05
8 *154:8 *201:78 5.49544e-05
9 *154:8 *201:85 8.51331e-05
10 *154:10 *2270:B 4.15914e-05
11 *154:10 *2280:B 4.06782e-05
12 *154:10 *2280:D 3.92854e-05
13 *154:10 *169:102 0.000419487
14 *154:10 *169:160 0.00127496
15 *154:10 *172:46 0
16 *154:10 *177:12 0
17 *154:10 *204:57 0
18 *438:DIODE *154:10 5.5764e-05
19 *554:DIODE *154:10 6.42242e-05
20 *2272:B *154:10 0.000651248
21 *108:20 *154:10 6.77187e-05
22 *115:70 *154:10 6.04551e-05
23 *129:39 *154:10 3.30403e-05
24 *129:41 *154:10 0
25 *141:68 *154:10 4.33002e-05
26 *150:35 *154:10 0.000544955
27 *151:55 *154:10 0
28 *151:69 *154:10 9.35732e-05
29 *151:71 *154:10 4.44514e-05
30 *152:20 *154:10 1.95625e-05
*RES
1 *2270:X *154:8 15.1571 
2 *154:8 *154:10 58.1071 
3 *154:10 *2273:A2 18.05 
*END

*D_NET *155 0.00492247
*CONN
*I *2272:C I *D sky130_fd_sc_hd__and3_2
*I *2271:X O *D sky130_fd_sc_hd__and4_1
*CAP
1 *2272:C 0
2 *2271:X 0.000996228
3 *155:14 0.000996228
4 *155:14 *470:DIODE 0.000158553
5 *155:14 *472:DIODE 0.000146474
6 *155:14 *2270:B 1.32056e-05
7 *155:14 *2271:C 9.83442e-05
8 *155:14 *2282:B 0.000270243
9 *155:14 *162:20 1.98839e-05
10 *155:14 *181:177 4.46186e-06
11 *155:14 *181:194 0.000414201
12 *155:14 *182:128 0.00116497
13 *155:14 *202:94 1.01075e-05
14 *155:14 *202:96 0.00012993
15 *2272:A *155:14 9.60875e-05
16 *36:30 *155:14 3.4323e-06
17 *103:34 *155:14 0
18 *119:115 *155:14 0.000400117
*RES
1 *2271:X *155:14 44.8 
2 *155:14 *2272:C 9.3 
*END

*D_NET *156 0.029081
*CONN
*I *2280:D I *D sky130_fd_sc_hd__and4_1
*I *469:DIODE I *D sky130_fd_sc_hd__diode_2
*I *461:DIODE I *D sky130_fd_sc_hd__diode_2
*I *2273:B1_N I *D sky130_fd_sc_hd__o21ba_1
*I *453:DIODE I *D sky130_fd_sc_hd__diode_2
*I *2274:B I *D sky130_fd_sc_hd__and2_1
*I *455:DIODE I *D sky130_fd_sc_hd__diode_2
*I *2277:C I *D sky130_fd_sc_hd__nand3_2
*I *457:DIODE I *D sky130_fd_sc_hd__diode_2
*I *2275:B I *D sky130_fd_sc_hd__nor2_1
*I *2272:X O *D sky130_fd_sc_hd__and3_2
*CAP
1 *2280:D 0.000102008
2 *469:DIODE 0
3 *461:DIODE 3.41373e-05
4 *2273:B1_N 0
5 *453:DIODE 0
6 *2274:B 0.00011981
7 *455:DIODE 0
8 *2277:C 0
9 *457:DIODE 0
10 *2275:B 0.000210157
11 *2272:X 0
12 *156:140 0.000749155
13 *156:101 0.00282551
14 *156:91 0.00379788
15 *156:71 0.00125261
16 *156:65 0.000953982
17 *156:49 0.000861214
18 *156:42 0.000160278
19 *156:38 0.0012047
20 *156:14 0.000735894
21 *156:4 0.000956535
22 *461:DIODE *203:68 4.58194e-05
23 *461:DIODE *204:63 8.17274e-05
24 *2274:B *2274:A 0.000108123
25 *2274:B *157:29 0.000447907
26 *2274:B *203:26 9.54004e-05
27 *2275:B *456:DIODE 5.52238e-05
28 *2275:B *182:136 2.47724e-05
29 *2275:B *203:103 4.13595e-05
30 *2280:D *2280:B 7.70035e-05
31 *156:14 *456:DIODE 9.41642e-05
32 *156:14 *2391:A 7.36469e-05
33 *156:14 *205:68 0.000998688
34 *156:38 *2391:A 1.98839e-05
35 *156:38 *180:86 0.000166503
36 *156:38 *180:107 0.000510741
37 *156:38 *182:128 1.55051e-05
38 *156:38 *205:58 0.000700133
39 *156:38 *205:68 0.000192933
40 *156:42 *205:58 0.000432978
41 *156:49 *203:68 4.58194e-05
42 *156:49 *204:63 9.58632e-05
43 *156:65 *2245:C 0.000232583
44 *156:65 *175:16 7.88303e-05
45 *156:65 *178:48 0.00053728
46 *156:65 *178:74 0.000141558
47 *156:65 *182:113 5.36422e-05
48 *156:65 *192:92 0.000456391
49 *156:65 *217:30 0.000135028
50 *156:71 *175:16 0.00019255
51 *156:71 *178:8 5.49995e-05
52 *156:71 *214:22 4.02038e-05
53 *156:91 *279:DIODE 0.000185408
54 *156:91 *175:16 5.50052e-05
55 *156:91 *178:8 5.50052e-05
56 *156:91 *178:10 8.91505e-05
57 *156:91 *179:100 0.000138415
58 *156:91 *199:134 0
59 *156:91 *203:20 0.000313215
60 *156:91 *205:14 0.00018953
61 *156:91 *205:58 0.000356427
62 *156:101 *2284:A 9.87041e-05
63 *156:101 *157:29 0.000271751
64 *156:101 *203:20 0.000135028
65 *156:101 *203:26 0.00164725
66 *156:101 *220:59 0.000119251
67 *156:140 *413:DIODE 0.000137983
68 *156:140 *2392:A 8.56851e-05
69 *156:140 *203:66 6.88294e-06
70 *2238:D *156:38 0.000102056
71 *2238:D *156:42 0.000433678
72 *2238:D *156:65 0.0006343
73 *2374:D *156:91 0.000192867
74 *2374:RESET_B *156:91 0.000677318
75 *16:8 *156:65 0.000192622
76 *16:8 *156:71 0.000219489
77 *103:14 *156:65 0.000863156
78 *115:70 *2280:D 8.59075e-05
79 *115:70 *156:140 0.000140933
80 *130:38 *156:14 0.00100021
81 *135:16 *156:91 0.000403392
82 *154:10 *2280:D 3.92854e-05
*RES
1 *2272:X *156:4 9.3 
2 *156:4 *156:14 24.4821 
3 *156:14 *2275:B 12.2107 
4 *156:14 *457:DIODE 9.3 
5 *156:4 *156:38 17.9643 
6 *156:38 *156:42 10.0893 
7 *156:42 *2277:C 9.3 
8 *156:42 *156:49 0.946429 
9 *156:49 *156:65 37.9286 
10 *156:65 *156:71 9.125 
11 *156:71 *156:91 45.3214 
12 *156:91 *156:101 49 
13 *156:101 *455:DIODE 9.3 
14 *156:101 *2274:B 14.3893 
15 *156:71 *453:DIODE 9.3 
16 *156:65 *2273:B1_N 13.8 
17 *156:49 *461:DIODE 10.2464 
18 *156:38 *156:140 12.0179 
19 *156:140 *469:DIODE 9.3 
20 *156:140 *2280:D 20.2821 
*END

*D_NET *157 0.00998681
*CONN
*I *2278:A2 I *D sky130_fd_sc_hd__o21a_1
*I *2276:A I *D sky130_fd_sc_hd__nor2_1
*I *2274:X O *D sky130_fd_sc_hd__and2_1
*CAP
1 *2278:A2 0.000570083
2 *2276:A 0.000484607
3 *2274:X 0
4 *157:29 0.00227934
5 *157:4 0.00219386
6 *2276:A *2178:D_N 7.22233e-05
7 *2276:A *179:118 0.000105502
8 *2276:A *188:42 0.000104766
9 *2276:A *189:60 4.25684e-05
10 *2276:A *189:64 0.000183711
11 *2278:A2 *2278:A1 5.71472e-05
12 *2278:A2 *159:24 0.000413171
13 *157:29 *189:60 0.000100165
14 *157:29 *203:26 0.00136337
15 *157:29 *208:66 0.000392345
16 *335:DIODE *157:29 0.000230362
17 *2274:B *157:29 0.000447907
18 *21:24 *157:29 0
19 *55:14 *157:29 0.000477907
20 *94:26 *2278:A2 3.57315e-05
21 *94:41 *2278:A2 0.000142856
22 *121:20 *2278:A2 1.74352e-05
23 *156:101 *157:29 0.000271751
*RES
1 *2274:X *157:4 9.3 
2 *157:4 *2276:A 27.8536 
3 *157:4 *157:29 43.8036 
4 *157:29 *2278:A2 20.1036 
*END

*D_NET *158 0.0240332
*CONN
*I *2276:B I *D sky130_fd_sc_hd__nor2_1
*I *458:DIODE I *D sky130_fd_sc_hd__diode_2
*I *2275:Y O *D sky130_fd_sc_hd__nor2_1
*CAP
1 *2276:B 1.68118e-05
2 *458:DIODE 0.000160758
3 *2275:Y 0.00733903
4 *158:24 0.00139249
5 *158:22 0.00855396
6 *458:DIODE *223:DIODE 0
7 *2276:B *2178:A 9.84673e-05
8 *158:22 *2382:A 7.76075e-06
9 *158:22 *163:60 4.37712e-06
10 *158:22 *168:12 0.000112793
11 *158:22 *191:14 0.000485724
12 *158:22 *191:16 0.000121565
13 *158:22 *193:10 0.000283592
14 *158:22 *203:96 2.11419e-05
15 *158:22 *214:38 0.000110894
16 *158:24 *2367:CLK 8.25098e-05
17 *158:24 *179:118 9.95963e-05
18 *158:24 *179:129 0.000102626
19 *158:24 *179:142 0.000836446
20 *158:24 *179:170 0.000373456
21 *158:24 *181:46 0.000148189
22 *26:10 *158:24 0.00115933
23 *31:14 *158:22 0.00100853
24 *40:18 *2276:B 9.84673e-05
25 *90:18 *158:22 0
26 *106:10 *158:22 0.000113806
27 *106:14 *158:22 0.000183617
28 *115:34 *158:22 0.000283592
29 *116:72 *158:22 0.000306861
30 *119:87 *158:22 1.01912e-05
31 *127:20 *158:22 0
32 *127:20 *158:24 0.000200642
33 *133:16 *158:22 0.000122609
34 *136:14 *158:22 0
35 *136:50 *158:22 0
36 *141:68 *158:22 0
37 *144:56 *158:22 0.000193399
38 *152:20 *158:22 0
*RES
1 *2275:Y *158:22 43.8879 
2 *158:22 *158:24 36.0982 
3 *158:24 *458:DIODE 15.7464 
4 *158:24 *2276:B 14.7464 
*END

*D_NET *159 0.0187321
*CONN
*I *465:DIODE I *D sky130_fd_sc_hd__diode_2
*I *2279:B I *D sky130_fd_sc_hd__xnor2_1
*I *463:DIODE I *D sky130_fd_sc_hd__diode_2
*I *2278:B1 I *D sky130_fd_sc_hd__o21a_1
*I *2277:Y O *D sky130_fd_sc_hd__nand3_2
*CAP
1 *465:DIODE 0
2 *2279:B 0.000239176
3 *463:DIODE 9.26016e-05
4 *2278:B1 0
5 *2277:Y 0.0015736
6 *159:40 0.00123001
7 *159:24 0.000888954
8 *159:18 0.00235118
9 *159:16 0.0021376
10 *463:DIODE *2278:A1 0.000215102
11 *2279:B *2279:A 0.000145076
12 *2279:B *189:56 0.000518447
13 *2279:B *206:14 3.84968e-05
14 *159:16 *2210:A 4.58194e-05
15 *159:16 *182:18 0.000303698
16 *159:18 *212:20 0.000760804
17 *159:18 *213:24 7.58841e-05
18 *159:24 *2278:A1 0.0001399
19 *159:40 *189:56 0.000258042
20 *159:40 *206:14 0.000361788
21 *159:40 *213:24 0.000689467
22 *159:40 *213:30 0.000139163
23 *2256:B *2279:B 1.35553e-05
24 *2278:A2 *159:24 0.000413171
25 *2371:D *2279:B 6.30315e-05
26 *2379:A *159:16 0.000134168
27 *21:24 *159:18 0.00144002
28 *21:24 *159:24 0.000930589
29 *51:12 *159:16 9.41642e-05
30 *60:12 *159:16 0.000521573
31 *60:12 *159:18 0.000294446
32 *60:12 *159:24 0.000290696
33 *80:12 *159:16 9.44309e-06
34 *94:26 *159:24 4.87953e-05
35 *96:20 *159:40 0.000771378
36 *117:26 *159:16 0.00067825
37 *119:24 *159:16 0.000280897
38 *119:26 *159:16 0.000128385
39 *119:38 *159:16 0.000169785
40 *121:12 *159:24 0.000107272
41 *121:12 *159:40 0.000137639
*RES
1 *2277:Y *159:16 43.5707 
2 *159:16 *159:18 19.0982 
3 *159:18 *159:24 25.5179 
4 *159:24 *2278:B1 9.3 
5 *159:24 *463:DIODE 11.4786 
6 *159:18 *159:40 29.6786 
7 *159:40 *2279:B 16.2286 
8 *159:40 *465:DIODE 9.3 
*END

*D_NET *160 0.00445138
*CONN
*I *2281:B I *D sky130_fd_sc_hd__xor2_1
*I *2280:X O *D sky130_fd_sc_hd__and4_1
*CAP
1 *2281:B 0.000665716
2 *2280:X 0.000665716
3 *2281:B *395:DIODE 1.58163e-05
4 *2281:B *506:DIODE 6.9024e-05
5 *2281:B *2280:C 0.000263524
6 *2281:B *2299:A1 0.000136958
7 *2281:B *2299:A2 9.41642e-05
8 *2281:B *180:82 0.000136958
9 *2281:B *181:150 0.000473747
10 *2281:B *204:57 0.000181796
11 *2281:B *207:37 0.000382311
12 *2281:B *215:10 0.000592363
13 *2238:D *2281:B 0.000140602
14 *2353:D *2281:B 1.84765e-05
15 *2368:D *2281:B 0.000287127
16 *44:10 *2281:B 4.22135e-06
17 *115:70 *2281:B 0.000322856
*RES
1 *2280:X *2281:B 47.9036 
*END

*D_NET *161 0.0120493
*CONN
*I *2283:A I *D sky130_fd_sc_hd__buf_2
*I *2282:X O *D sky130_fd_sc_hd__or3_1
*CAP
1 *2283:A 0.00151496
2 *2282:X 0.0011572
3 *161:10 0.00267217
4 *2283:A *2336:A 0.000141036
5 *2283:A *169:160 0.00176251
6 *2283:A *204:57 2.84026e-05
7 *161:10 *2280:C 5.48376e-05
8 *161:10 *177:8 0.000188364
9 *161:10 *177:12 0.000732619
10 *161:10 *177:84 0.000180299
11 *161:10 *177:95 7.10552e-05
12 *161:10 *177:104 0.000155723
13 *161:10 *177:124 0.00032287
14 *161:10 *177:126 4.16984e-05
15 *161:10 *177:136 1.21258e-05
16 *161:10 *180:156 0.000326028
17 *161:10 *183:150 0.00011495
18 *161:10 *204:57 0.000543026
19 *161:10 *206:56 0.000100823
20 *161:10 *216:12 0.000758672
21 *554:DIODE *161:10 2.87473e-05
22 *2365:D *161:10 0.000137983
23 *42:24 *161:10 0.000282444
24 *65:18 *2283:A 0.000685256
25 *84:12 *2283:A 2.37302e-05
26 *115:70 *161:10 1.17968e-05
*RES
1 *2282:X *161:10 46.9786 
2 *161:10 *2283:A 40.9071 
*END

*D_NET *162 0.0172562
*CONN
*I *475:DIODE I *D sky130_fd_sc_hd__diode_2
*I *2285:A2 I *D sky130_fd_sc_hd__a21oi_1
*I *2284:Y O *D sky130_fd_sc_hd__inv_2
*CAP
1 *475:DIODE 9.05748e-05
2 *2285:A2 0
3 *2284:Y 0
4 *162:20 0.00142654
5 *162:8 0.00349643
6 *162:6 0.00216047
7 *475:DIODE *2285:B1 0.000140933
8 *475:DIODE *2391:A 0.000225642
9 *162:8 *2197:B 3.54081e-05
10 *162:8 *2337:A 4.25619e-05
11 *162:8 *2339:A 2.19226e-05
12 *162:8 *169:44 0.000676036
13 *162:8 *183:57 0.000145477
14 *162:8 *183:67 0.000125542
15 *162:8 *189:30 0.000211013
16 *162:8 *194:95 3.9733e-05
17 *162:8 *198:28 0
18 *162:8 *209:142 0.000106505
19 *162:8 *220:59 0
20 *162:20 *258:DIODE 9.83388e-05
21 *162:20 *2391:A 0.000391
22 *162:20 *178:74 0.00055656
23 *162:20 *203:96 0.000216304
24 *2272:A *162:20 0.000219711
25 *2345:D *162:8 0.00179346
26 *73:16 *162:8 0
27 *101:24 *162:8 0.000267735
28 *116:48 *162:8 4.14691e-05
29 *119:24 *162:20 2.05938e-05
30 *119:42 *162:8 0.00161688
31 *119:87 *162:20 7.50697e-05
32 *134:161 *162:20 5.52238e-05
33 *134:173 *162:20 0.000300412
34 *145:10 *162:8 0.000439063
35 *148:14 *162:20 0.00219975
36 *155:14 *162:20 1.98839e-05
*RES
1 *2284:Y *162:6 13.8 
2 *162:6 *162:8 59.625 
3 *162:8 *162:20 44.125 
4 *162:20 *2285:A2 9.3 
5 *162:20 *475:DIODE 11.8893 
*END

*D_NET *163 0.0293571
*CONN
*I *486:DIODE I *D sky130_fd_sc_hd__diode_2
*I *2289:B I *D sky130_fd_sc_hd__and3_1
*I *2291:B I *D sky130_fd_sc_hd__xnor2_1
*I *488:DIODE I *D sky130_fd_sc_hd__diode_2
*I *2287:Y O *D sky130_fd_sc_hd__nand3_2
*CAP
1 *486:DIODE 0
2 *2289:B 0.000289993
3 *2291:B 0.000252304
4 *488:DIODE 0
5 *2287:Y 0.0013291
6 *163:60 0.0063298
7 *163:24 0.0026826
8 *163:14 0.0097992
9 *2291:B *2291:A 0.000311183
10 *2291:B *182:136 0.000169359
11 *163:14 *2287:C 5.49489e-05
12 *163:14 *179:54 0.00023817
13 *163:14 *180:111 0.000844476
14 *163:14 *180:128 0.000124521
15 *163:14 *180:141 0.000215276
16 *163:14 *180:156 0.000123617
17 *163:24 *171:252 9.97164e-05
18 *163:24 *180:111 0.000523448
19 *163:24 *182:136 0.000628829
20 *163:60 *2382:A 0.000601299
21 *163:60 *173:18 0.00175373
22 *163:60 *173:52 0.00137
23 *163:60 *207:37 0.000286414
24 *2352:D *163:14 0.000143967
25 *30:16 *163:60 0.000186352
26 *44:10 *163:60 0.000165074
27 *85:8 *2289:B 0.000445008
28 *95:18 *163:24 0.000171375
29 *136:50 *163:60 5.43903e-05
30 *141:68 *163:60 2.35126e-05
31 *141:114 *163:60 0
32 *152:20 *163:14 0.000135028
33 *158:22 *163:60 4.37712e-06
*RES
1 *2287:Y *163:14 41.4429 
2 *163:14 *163:24 41.4821 
3 *163:24 *488:DIODE 9.3 
4 *163:24 *2291:B 14.9786 
5 *163:14 *163:60 35.4007 
6 *163:60 *2289:B 13.5321 
7 *163:60 *486:DIODE 9.3 
*END

*D_NET *164 0.0056208
*CONN
*I *2289:C I *D sky130_fd_sc_hd__and3_1
*I *2288:X O *D sky130_fd_sc_hd__a21o_1
*CAP
1 *2289:C 0.000156616
2 *2288:X 0.00117227
3 *164:18 0.00132888
4 *2289:C *220:42 0.000141729
5 *2289:C *220:53 5.14441e-05
6 *164:18 *263:DIODE 3.76935e-05
7 *164:18 *264:DIODE 0.000394942
8 *164:18 *2192:B 9.84673e-05
9 *164:18 *2241:A1 4.54397e-05
10 *164:18 *2288:B1 1.00887e-05
11 *164:18 *171:92 0
12 *164:18 *181:78 0.000101771
13 *164:18 *183:43 9.0491e-05
14 *164:18 *214:10 0.000100248
15 *36:26 *164:18 0.00018265
16 *51:22 *164:18 0.000544163
17 *102:8 *164:18 0.000610422
18 *135:16 *164:18 2.85234e-05
19 *151:96 *164:18 0.000524964
*RES
1 *2288:X *164:18 49.9786 
2 *164:18 *2289:C 16.05 
*END

*D_NET *165 0.00818437
*CONN
*I *2290:A I *D sky130_fd_sc_hd__buf_1
*I *2289:X O *D sky130_fd_sc_hd__and3_1
*CAP
1 *2290:A 0.00051393
2 *2289:X 0.00120485
3 *165:10 0.00171878
4 *2290:A *174:26 0.000966609
5 *2290:A *174:28 0.000168939
6 *165:10 *2187:B 0.000124913
7 *165:10 *2187:D_N 9.60939e-05
8 *165:10 *2337:A 0.00027005
9 *165:10 *186:36 3.21277e-05
10 *165:10 *220:53 0.000649011
11 *2371:D *2290:A 0.000221058
12 *17:22 *2290:A 0.000221058
13 *30:18 *2290:A 0.000204699
14 *74:10 *2290:A 1.43349e-05
15 *78:10 *2290:A 0.000342247
16 *85:8 *165:10 0.000125004
17 *99:8 *165:10 0.00111736
18 *105:24 *2290:A 0.000193307
*RES
1 *2289:X *165:10 39.4071 
2 *165:10 *2290:A 30.9786 
*END

*D_NET *166 0.0266639
*CONN
*I *2293:A I *D sky130_fd_sc_hd__inv_2
*I *492:DIODE I *D sky130_fd_sc_hd__diode_2
*I *2299:B1 I *D sky130_fd_sc_hd__o31ai_2
*I *507:DIODE I *D sky130_fd_sc_hd__diode_2
*I *500:DIODE I *D sky130_fd_sc_hd__diode_2
*I *2296:B1 I *D sky130_fd_sc_hd__o21ai_2
*I *2292:Y O *D sky130_fd_sc_hd__o21ai_4
*CAP
1 *2293:A 1.79001e-05
2 *492:DIODE 4.91556e-05
3 *2299:B1 0.000165309
4 *507:DIODE 0.000204038
5 *500:DIODE 0
6 *2296:B1 0.00013385
7 *2292:Y 0.000413943
8 *166:90 0.000901273
9 *166:77 0.00108894
10 *166:66 0.000999309
11 *166:64 0.00265083
12 *166:30 0.00211436
13 *166:10 0.00433943
14 *492:DIODE *201:71 1.58163e-05
15 *2293:A *203:118 4.61703e-05
16 *2296:B1 *201:16 0.000127246
17 *2299:B1 *506:DIODE 5.63843e-05
18 *2299:B1 *181:150 6.42095e-05
19 *166:10 *2292:B1 5.71472e-05
20 *166:10 *169:44 0.000345711
21 *166:10 *182:32 0
22 *166:10 *219:24 5.52302e-05
23 *166:30 *369:DIODE 9.55684e-05
24 *166:30 *186:36 1.90936e-05
25 *166:30 *188:42 0.000819426
26 *166:30 *214:38 0.000318844
27 *166:30 *219:16 0.000389736
28 *166:64 *169:44 6.91321e-05
29 *166:64 *189:22 0.000926689
30 *166:64 *190:44 4.1861e-05
31 *166:64 *204:82 9.87534e-05
32 *166:64 *206:40 0.000308007
33 *166:66 *2180:B 0.000148903
34 *166:66 *191:82 0
35 *166:66 *191:90 0.000244174
36 *166:66 *196:93 0.000567306
37 *166:66 *204:76 0.000390267
38 *166:66 *204:82 0.000475629
39 *166:77 *196:93 0.000117189
40 *166:77 *196:117 7.83659e-05
41 *166:90 *196:117 0.00149768
42 *166:90 *203:118 0.00032927
43 *412:DIODE *166:30 1.84865e-05
44 *2379:A *166:30 0
45 *20:12 *166:64 0.000198023
46 *20:12 *166:66 1.95405e-05
47 *92:8 *166:66 3.41848e-05
48 *92:8 *166:90 0.000194214
49 *96:20 *166:10 0.000182953
50 *96:20 *166:64 0.00015446
51 *105:12 *166:30 0.000560776
52 *130:38 *2293:A 5.54204e-05
53 *130:38 *166:66 0.000475618
54 *130:38 *166:77 0.000191403
55 *130:38 *166:90 0.00221965
56 *132:18 *166:30 0.000848358
57 *134:65 *166:66 8.04387e-05
58 *134:103 *166:66 0.000300699
59 *144:93 *507:DIODE 0.000260574
60 *153:20 *166:64 8.69672e-05
*RES
1 *2292:Y *166:10 23.4161 
2 *166:10 *166:30 37.7867 
3 *166:30 *2296:B1 20.8893 
4 *166:30 *500:DIODE 9.3 
5 *166:10 *166:64 37.1786 
6 *166:64 *166:66 22.7411 
7 *166:66 *507:DIODE 16.3893 
8 *166:66 *166:77 2.55357 
9 *166:77 *2299:B1 15.9964 
10 *166:77 *166:90 29.2679 
11 *166:90 *492:DIODE 14.3357 
12 *166:90 *2293:A 14.5321 
*END

*D_NET *167 0.021038
*CONN
*I *499:DIODE I *D sky130_fd_sc_hd__diode_2
*I *2296:A2 I *D sky130_fd_sc_hd__o21ai_2
*I *2295:A2 I *D sky130_fd_sc_hd__a211o_1
*I *495:DIODE I *D sky130_fd_sc_hd__diode_2
*I *2294:Y O *D sky130_fd_sc_hd__inv_2
*CAP
1 *499:DIODE 3.96417e-05
2 *2296:A2 0
3 *2295:A2 0
4 *495:DIODE 0.000296473
5 *2294:Y 0.0010593
6 *167:48 0.00118159
7 *167:44 0.00119016
8 *167:38 0.00168616
9 *167:28 0.00163198
10 *167:24 0.00134981
11 *499:DIODE *179:146 5.49544e-05
12 *167:24 *413:DIODE 0.000136958
13 *167:24 *2257:B1 0.000199365
14 *167:24 *197:24 0.00102064
15 *167:24 *217:22 4.85277e-05
16 *167:28 *202:44 0.000101545
17 *167:28 *217:22 0.000752924
18 *167:38 *217:14 0.00116766
19 *167:38 *217:22 0.00165157
20 *167:38 *218:50 0.00110502
21 *167:44 *2296:A1 4.3734e-05
22 *167:44 *179:146 1.6528e-05
23 *167:44 *201:16 0.000269436
24 *167:48 *201:16 3.06406e-05
25 *167:48 *218:14 0
26 *414:DIODE *167:24 4.87953e-05
27 *2257:A2 *167:24 1.40034e-05
28 *2377:RESET_B *167:38 0.00110021
29 *2379:A *167:24 0.000147243
30 *17:22 *167:38 0.000141579
31 *17:22 *167:44 0.000109827
32 *26:18 *167:24 0.000717873
33 *35:14 *167:48 0
34 *60:12 *167:28 9.8285e-06
35 *98:10 *167:28 0.000237756
36 *117:26 *167:24 0.000989216
37 *122:14 *495:DIODE 1.99099e-05
38 *122:14 *167:48 0.000108839
39 *122:22 *495:DIODE 0
40 *123:18 *167:24 0.0010986
41 *123:18 *167:28 0.000217423
42 *142:14 *167:48 0.000424259
43 *144:93 *167:24 0.000553168
44 *147:26 *167:38 4.51198e-05
45 *147:26 *167:44 1.9774e-05
*RES
1 *2294:Y *167:24 47.2464 
2 *167:24 *167:28 14.6429 
3 *167:28 *167:38 44.9107 
4 *167:38 *167:44 10.5893 
5 *167:44 *167:48 24.0536 
6 *167:48 *495:DIODE 17.6214 
7 *167:48 *2295:A2 13.8 
8 *167:44 *2296:A2 9.3 
9 *167:38 *499:DIODE 14.3357 
*END

*D_NET *168 0.0041235
*CONN
*I *2298:A I *D sky130_fd_sc_hd__buf_1
*I *2297:X O *D sky130_fd_sc_hd__or3_1
*CAP
1 *2298:A 0
2 *2297:X 0.000670484
3 *168:12 0.000670484
4 *168:12 *2297:C 6.96806e-05
5 *168:12 *169:34 8.35691e-05
6 *168:12 *193:10 0.00163047
7 *131:18 *168:12 0.000546307
8 *133:16 *168:12 0.000339713
9 *158:22 *168:12 0.000112793
*RES
1 *2297:X *168:12 40.7286 
2 *168:12 *2298:A 9.3 
*END

*D_NET *169 0.0527312
*CONN
*I *2338:A I *D sky130_fd_sc_hd__inv_2
*I *545:DIODE I *D sky130_fd_sc_hd__diode_2
*I *2334:A I *D sky130_fd_sc_hd__inv_2
*I *541:DIODE I *D sky130_fd_sc_hd__diode_2
*I *2335:A I *D sky130_fd_sc_hd__inv_2
*I *542:DIODE I *D sky130_fd_sc_hd__diode_2
*I *519:DIODE I *D sky130_fd_sc_hd__diode_2
*I *2312:A I *D sky130_fd_sc_hd__clkbuf_8
*I *547:DIODE I *D sky130_fd_sc_hd__diode_2
*I *2340:A I *D sky130_fd_sc_hd__inv_2
*I *2336:A I *D sky130_fd_sc_hd__inv_2
*I *543:DIODE I *D sky130_fd_sc_hd__diode_2
*I *530:DIODE I *D sky130_fd_sc_hd__diode_2
*I *2301:A I *D sky130_fd_sc_hd__clkbuf_8
*I *508:DIODE I *D sky130_fd_sc_hd__diode_2
*I *2323:A I *D sky130_fd_sc_hd__buf_4
*I *546:DIODE I *D sky130_fd_sc_hd__diode_2
*I *2339:A I *D sky130_fd_sc_hd__inv_2
*I *544:DIODE I *D sky130_fd_sc_hd__diode_2
*I *2337:A I *D sky130_fd_sc_hd__inv_2
*I *2300:X O *D sky130_fd_sc_hd__clkbuf_8
*CAP
1 *2338:A 0.000136843
2 *545:DIODE 0
3 *2334:A 1.16062e-05
4 *541:DIODE 0
5 *2335:A 0.00015238
6 *542:DIODE 0
7 *519:DIODE 0
8 *2312:A 0
9 *547:DIODE 0
10 *2340:A 0.000118872
11 *2336:A 2.38375e-05
12 *543:DIODE 0
13 *530:DIODE 0.000103413
14 *2301:A 8.59115e-05
15 *508:DIODE 5.67229e-05
16 *2323:A 2.04856e-05
17 *546:DIODE 0
18 *2339:A 7.31177e-05
19 *544:DIODE 0
20 *2337:A 0.00011487
21 *2300:X 3.75822e-05
22 *169:254 0.000455263
23 *169:241 0.000492841
24 *169:228 0.000982332
25 *169:206 0.000622977
26 *169:202 0.00186212
27 *169:176 0.000873664
28 *169:160 0.00135008
29 *169:125 0.000744826
30 *169:108 0.000748691
31 *169:102 0.000667336
32 *169:100 0.00390975
33 *169:75 0.00219389
34 *169:44 0.00089249
35 *169:42 0.000850737
36 *169:40 0.00128675
37 *169:34 0.00320333
38 *169:24 0.0014442
39 *169:22 0.00120957
40 *169:8 0.00158503
41 *508:DIODE *170:12 0
42 *508:DIODE *179:82 3.92757e-05
43 *2301:A *219:26 3.67257e-05
44 *2337:A *198:28 0
45 *2339:A *209:142 5.31113e-05
46 *169:22 *180:111 0.000596929
47 *169:22 *213:118 0.000387626
48 *169:24 *171:8 0.000343591
49 *169:24 *180:111 1.24368e-05
50 *169:24 *180:113 0.000113142
51 *169:34 *2221:B1 6.98971e-05
52 *169:34 *171:8 9.71197e-05
53 *169:34 *171:16 0.00106926
54 *169:34 *179:170 1.69115e-05
55 *169:34 *193:10 1.69115e-05
56 *169:34 *193:50 0.000813946
57 *169:34 *214:68 0.00165421
58 *169:40 *381:DIODE 9.60939e-05
59 *169:40 *2242:B 0.000137983
60 *169:40 *213:50 0.000896461
61 *169:44 *182:32 0
62 *169:44 *189:30 0.000211013
63 *169:44 *198:28 0
64 *169:44 *209:142 0.000150142
65 *169:100 *250:DIODE 0.000298483
66 *169:100 *190:44 7.29633e-05
67 *169:100 *191:90 9.25014e-06
68 *169:102 *180:20 2.90582e-05
69 *169:102 *180:52 2.81499e-05
70 *169:108 *180:20 2.45152e-05
71 *169:125 *175:140 7.27855e-05
72 *169:125 *179:8 0.000142427
73 *169:125 *198:10 7.70035e-05
74 *169:125 *203:50 7.89497e-05
75 *169:125 *219:26 0.000159192
76 *169:160 *182:14 4.48698e-05
77 *169:160 *183:150 0
78 *169:160 *196:70 0
79 *169:160 *204:57 2.53112e-06
80 *169:176 *201:22 0.000270626
81 *169:202 *301:DIODE 0.000101227
82 *169:202 *181:10 0
83 *169:202 *213:118 0.000574239
84 *169:228 *2308:A 9.93135e-05
85 *169:228 *170:155 0.000188586
86 *169:228 *171:198 2.88018e-06
87 *169:228 *181:10 0
88 *169:228 *213:118 8.14722e-05
89 *169:241 *170:155 0.00010096
90 *169:241 *178:97 0
91 *169:254 *178:97 0
92 *299:DIODE *169:40 6.05161e-06
93 *2185:C *169:254 4.23086e-05
94 *2221:A2 *169:34 7.72966e-05
95 *2283:A *2336:A 0.000141036
96 *2283:A *169:160 0.00176251
97 *2348:D *2338:A 5.19842e-06
98 *2364:RESET_B *530:DIODE 7.40432e-05
99 *2364:RESET_B *2323:A 5.38444e-06
100 *2364:RESET_B *169:108 0.000393386
101 *2364:RESET_B *169:125 2.84026e-05
102 *2375:RESET_B *2338:A 9.90431e-05
103 *28:28 *169:22 0
104 *28:28 *169:202 0
105 *29:12 *169:22 0
106 *41:18 *169:108 0.000440238
107 *41:18 *169:125 4.17433e-05
108 *48:8 *169:40 0.00010748
109 *48:12 *2339:A 0.000178847
110 *48:12 *169:40 8.96807e-05
111 *53:12 *169:102 0.000924682
112 *53:12 *169:108 8.10335e-05
113 *53:12 *169:160 0.000326665
114 *58:12 *2334:A 5.52302e-05
115 *73:18 *2339:A 0.000178847
116 *73:18 *169:40 0.000267705
117 *73:18 *169:75 9.60939e-05
118 *73:18 *169:100 0.00174914
119 *82:12 *169:241 9.25014e-06
120 *83:10 *2335:A 0.000229456
121 *83:10 *169:206 0.000379569
122 *84:12 *2336:A 0.000127806
123 *84:12 *169:160 0.00152689
124 *85:8 *2337:A 0.000117553
125 *88:12 *2340:A 0.000185124
126 *88:12 *169:40 0.000196908
127 *88:12 *169:176 2.64844e-05
128 *96:20 *169:44 0.000131024
129 *96:46 *169:241 3.25078e-05
130 *96:46 *169:254 0.000157474
131 *104:30 *2334:A 5.52302e-05
132 *106:134 *169:228 0.000526819
133 *113:32 *169:40 0.000763405
134 *118:22 *2335:A 4.42013e-05
135 *124:16 *169:100 0.000175892
136 *131:18 *169:34 7.83659e-05
137 *131:18 *169:40 0.000290136
138 *131:44 *169:22 4.44684e-05
139 *133:16 *169:34 0.000591216
140 *134:8 *169:34 0.000137855
141 *134:8 *169:40 4.67971e-05
142 *134:65 *169:100 3.06878e-06
143 *134:75 *169:100 0.000817856
144 *134:103 *169:100 4.31104e-05
145 *134:224 *169:34 2.84398e-05
146 *138:26 *169:160 4.99283e-06
147 *154:10 *169:102 0.000419487
148 *154:10 *169:160 0.00127496
149 *162:8 *2337:A 4.25619e-05
150 *162:8 *2339:A 2.19226e-05
151 *162:8 *169:44 0.000676036
152 *165:10 *2337:A 0.00027005
153 *166:10 *169:44 0.000345711
154 *166:64 *169:44 6.91321e-05
155 *168:12 *169:34 8.35691e-05
*RES
1 *2300:X *169:8 14.3357 
2 *169:8 *169:22 22.875 
3 *169:22 *169:24 5.46429 
4 *169:24 *169:34 46.9107 
5 *169:34 *169:40 32.625 
6 *169:40 *169:42 4.5 
7 *169:42 *169:44 20.7679 
8 *169:44 *2337:A 17.425 
9 *169:44 *544:DIODE 13.8 
10 *169:42 *2339:A 16.3 
11 *169:40 *169:75 0.946429 
12 *169:75 *546:DIODE 9.3 
13 *169:75 *169:100 46.8036 
14 *169:100 *169:102 12.2679 
15 *169:102 *169:108 9.76786 
16 *169:108 *2323:A 9.72857 
17 *169:108 *169:125 18.5714 
18 *169:125 *508:DIODE 19.3357 
19 *169:125 *2301:A 10.675 
20 *169:102 *530:DIODE 15.1571 
21 *169:100 *169:160 42.5 
22 *169:160 *543:DIODE 9.3 
23 *169:160 *2336:A 10.6571 
24 *169:34 *169:176 13.6607 
25 *169:176 *2340:A 12.1036 
26 *169:176 *547:DIODE 9.3 
27 *169:24 *2312:A 9.3 
28 *169:22 *519:DIODE 9.3 
29 *169:8 *169:202 11.6607 
30 *169:202 *169:206 11.1964 
31 *169:206 *542:DIODE 9.3 
32 *169:206 *2335:A 12.7464 
33 *169:202 *169:228 16.625 
34 *169:228 *541:DIODE 9.3 
35 *169:228 *169:241 7.01786 
36 *169:241 *2334:A 14.3357 
37 *169:241 *169:254 11 
38 *169:254 *545:DIODE 9.3 
39 *169:254 *2338:A 11.3893 
*END

*D_NET *170 0.0466627
*CONN
*I *2307:A I *D sky130_fd_sc_hd__inv_2
*I *514:DIODE I *D sky130_fd_sc_hd__diode_2
*I *2302:A I *D sky130_fd_sc_hd__inv_2
*I *513:DIODE I *D sky130_fd_sc_hd__diode_2
*I *2306:A I *D sky130_fd_sc_hd__inv_2
*I *2310:A I *D sky130_fd_sc_hd__inv_2
*I *517:DIODE I *D sky130_fd_sc_hd__diode_2
*I *2308:A I *D sky130_fd_sc_hd__inv_2
*I *515:DIODE I *D sky130_fd_sc_hd__diode_2
*I *516:DIODE I *D sky130_fd_sc_hd__diode_2
*I *2309:A I *D sky130_fd_sc_hd__inv_2
*I *509:DIODE I *D sky130_fd_sc_hd__diode_2
*I *511:DIODE I *D sky130_fd_sc_hd__diode_2
*I *2304:A I *D sky130_fd_sc_hd__inv_2
*I *518:DIODE I *D sky130_fd_sc_hd__diode_2
*I *2311:A I *D sky130_fd_sc_hd__inv_2
*I *512:DIODE I *D sky130_fd_sc_hd__diode_2
*I *2305:A I *D sky130_fd_sc_hd__inv_2
*I *510:DIODE I *D sky130_fd_sc_hd__diode_2
*I *2303:A I *D sky130_fd_sc_hd__inv_2
*I *2301:X O *D sky130_fd_sc_hd__clkbuf_8
*CAP
1 *2307:A 0.000148822
2 *514:DIODE 0
3 *2302:A 0
4 *513:DIODE 7.92211e-05
5 *2306:A 0
6 *2310:A 6.31582e-05
7 *517:DIODE 0
8 *2308:A 9.21534e-05
9 *515:DIODE 0
10 *516:DIODE 0
11 *2309:A 0.000110793
12 *509:DIODE 0
13 *511:DIODE 0.000163936
14 *2304:A 0
15 *518:DIODE 4.57813e-05
16 *2311:A 0
17 *512:DIODE 0
18 *2305:A 9.68226e-05
19 *510:DIODE 0
20 *2303:A 0.000149676
21 *2301:X 7.92214e-05
22 *170:208 0.000727047
23 *170:189 0.000116801
24 *170:173 0.000390051
25 *170:155 0.000373258
26 *170:151 0.000919345
27 *170:135 0.00132246
28 *170:129 0.00356665
29 *170:121 0.00229134
30 *170:113 0.000311768
31 *170:100 0.000565061
32 *170:96 0.00120384
33 *170:92 0.00174597
34 *170:76 0.000503735
35 *170:44 0.00164019
36 *170:42 0.00165518
37 *170:36 0.000258525
38 *170:34 0.00125148
39 *170:14 0.00091708
40 *170:12 0.0016768
41 *170:8 0.00176165
42 *2303:A *175:84 8.52195e-05
43 *2307:A *2391:A 2.16015e-05
44 *2308:A *171:198 2.44318e-05
45 *170:8 *219:26 0.000183726
46 *170:12 *179:82 0
47 *170:14 *175:84 0.000269795
48 *170:34 *211:14 0
49 *170:92 *185:30 0.000504586
50 *170:113 *2230:C 0.000222666
51 *170:121 *177:170 0.00053714
52 *170:129 *241:DIODE 0.00020486
53 *170:129 *2183:A 0.000178503
54 *170:129 *2183:B 8.18064e-05
55 *170:129 *2183:C 2.83425e-05
56 *170:129 *176:65 0.000216755
57 *170:129 *176:123 0.000311284
58 *170:129 *205:70 2.83425e-05
59 *170:129 *205:94 4.41588e-05
60 *170:129 *206:88 9.11116e-05
61 *170:135 *171:230 0.000146261
62 *170:151 *171:230 0.000881707
63 *170:173 *171:230 4.49293e-05
64 *508:DIODE *170:12 0
65 *599:DIODE *170:34 0
66 *599:DIODE *170:36 0
67 *599:DIODE *170:42 0
68 *2348:D *2310:A 2.27416e-05
69 *2350:RESET_B *170:44 9.24825e-05
70 *2364:D *170:92 5.38074e-05
71 *2366:RESET_B *170:92 0.00278066
72 *2369:RESET_B *170:76 9.6453e-05
73 *28:20 *170:34 0
74 *28:20 *170:92 0.000864266
75 *34:12 *2305:A 0.000276211
76 *34:12 *170:44 0.00342143
77 *40:18 *170:34 2.11419e-05
78 *41:24 *170:92 0
79 *53:12 *2303:A 0.000141555
80 *54:12 *170:76 0.0005049
81 *56:16 *170:129 0.000340062
82 *57:12 *2307:A 0.000143651
83 *57:12 *170:96 0.000222666
84 *57:12 *170:208 0.000814389
85 *58:12 *2308:A 0.000229456
86 *58:12 *170:155 1.21289e-05
87 *59:16 *2309:A 0.000101859
88 *59:16 *170:135 0.000343992
89 *60:10 *170:151 0.000169008
90 *60:10 *170:173 0.000285474
91 *65:6 *170:155 0.000183015
92 *67:26 *170:100 0.000245186
93 *82:12 *170:155 5.33005e-05
94 *104:30 *170:155 0.000921801
95 *109:22 *170:92 0.000714735
96 *109:22 *170:100 0.00070679
97 *109:22 *170:113 3.34687e-05
98 *109:28 *170:12 5.35516e-05
99 *109:28 *170:34 0.000559974
100 *109:28 *170:92 0.000249158
101 *110:10 *170:92 0
102 *110:10 *170:121 0.000538657
103 *119:115 *170:113 0.000309453
104 *119:115 *170:121 5.33005e-05
105 *119:119 *170:100 9.22948e-05
106 *119:119 *170:113 7.83587e-05
107 *119:133 *170:100 0.00111235
108 *125:10 *170:135 0.000144732
109 *125:10 *170:151 0.000562763
110 *126:12 *170:34 0.000266956
111 *126:40 *170:100 5.41794e-05
112 *128:12 *170:113 3.75081e-05
113 *128:12 *170:121 2.89016e-05
114 *136:50 *170:34 0
115 *169:228 *2308:A 9.93135e-05
116 *169:228 *170:155 0.000188586
117 *169:241 *170:155 0.00010096
*RES
1 *2301:X *170:8 15.5679 
2 *170:8 *170:12 6.44643 
3 *170:12 *170:14 12.0357 
4 *170:14 *2303:A 12.7286 
5 *170:14 *510:DIODE 9.3 
6 *170:12 *170:34 21.5714 
7 *170:34 *170:36 1.64286 
8 *170:36 *170:42 6.48214 
9 *170:42 *170:44 37.9107 
10 *170:44 *2305:A 11.8893 
11 *170:44 *512:DIODE 9.3 
12 *170:42 *2311:A 9.3 
13 *170:36 *518:DIODE 14.3357 
14 *170:34 *170:76 14.0893 
15 *170:76 *2304:A 9.3 
16 *170:76 *511:DIODE 11.3893 
17 *170:8 *170:92 48.0893 
18 *170:92 *170:96 6.67857 
19 *170:96 *170:100 21.625 
20 *170:100 *509:DIODE 13.8 
21 *170:100 *170:113 8.53571 
22 *170:113 *170:121 16.6429 
23 *170:121 *170:129 42.1429 
24 *170:129 *170:135 20.5357 
25 *170:135 *2309:A 11.8 
26 *170:135 *516:DIODE 9.3 
27 *170:129 *170:151 11.6607 
28 *170:151 *170:155 13.6607 
29 *170:155 *515:DIODE 9.3 
30 *170:155 *2308:A 12.6214 
31 *170:151 *170:173 11.6071 
32 *170:173 *517:DIODE 9.3 
33 *170:173 *2310:A 10.5679 
34 *170:121 *170:189 0.535714 
35 *170:189 *2306:A 9.3 
36 *170:189 *513:DIODE 10.6571 
37 *170:113 *2302:A 9.3 
38 *170:96 *170:208 7.92857 
39 *170:208 *514:DIODE 9.3 
40 *170:208 *2307:A 11.8 
*END

*D_NET *171 0.0642062
*CONN
*I *527:DIODE I *D sky130_fd_sc_hd__diode_2
*I *2320:A I *D sky130_fd_sc_hd__inv_2
*I *520:DIODE I *D sky130_fd_sc_hd__diode_2
*I *2313:A I *D sky130_fd_sc_hd__inv_2
*I *2316:A I *D sky130_fd_sc_hd__inv_2
*I *523:DIODE I *D sky130_fd_sc_hd__diode_2
*I *2318:A I *D sky130_fd_sc_hd__inv_2
*I *525:DIODE I *D sky130_fd_sc_hd__diode_2
*I *522:DIODE I *D sky130_fd_sc_hd__diode_2
*I *2315:A I *D sky130_fd_sc_hd__inv_2
*I *529:DIODE I *D sky130_fd_sc_hd__diode_2
*I *524:DIODE I *D sky130_fd_sc_hd__diode_2
*I *2317:A I *D sky130_fd_sc_hd__inv_2
*I *2322:A I *D sky130_fd_sc_hd__inv_2
*I *2321:A I *D sky130_fd_sc_hd__inv_2
*I *528:DIODE I *D sky130_fd_sc_hd__diode_2
*I *2314:A I *D sky130_fd_sc_hd__inv_2
*I *521:DIODE I *D sky130_fd_sc_hd__diode_2
*I *2319:A I *D sky130_fd_sc_hd__inv_2
*I *526:DIODE I *D sky130_fd_sc_hd__diode_2
*I *2312:X O *D sky130_fd_sc_hd__clkbuf_8
*CAP
1 *527:DIODE 0
2 *2320:A 0
3 *520:DIODE 7.29177e-05
4 *2313:A 0
5 *2316:A 0
6 *523:DIODE 0
7 *2318:A 0
8 *525:DIODE 3.32994e-05
9 *522:DIODE 4.66718e-05
10 *2315:A 0
11 *529:DIODE 0.000251651
12 *524:DIODE 0
13 *2317:A 8.25402e-05
14 *2322:A 0
15 *2321:A 0
16 *528:DIODE 2.04241e-05
17 *2314:A 3.27985e-05
18 *521:DIODE 0
19 *2319:A 5.40981e-05
20 *526:DIODE 5.35717e-05
21 *2312:X 0.000124351
22 *171:252 0.000675163
23 *171:238 0.000688964
24 *171:230 0.00105915
25 *171:211 0.00109286
26 *171:198 0.00213003
27 *171:180 0.000377153
28 *171:170 0.00303444
29 *171:135 0.000585371
30 *171:120 0.000658688
31 *171:116 0.00144983
32 *171:92 0.00104192
33 *171:86 0.0042692
34 *171:66 0.00364151
35 *171:41 0.00145484
36 *171:34 0.00136294
37 *171:16 0.00109049
38 *171:10 0.00248299
39 *171:8 0.000975162
40 *520:DIODE *180:111 0.000135028
41 *522:DIODE *203:78 0.000223891
42 *528:DIODE *179:106 0.000143633
43 *528:DIODE *194:73 7.88091e-05
44 *171:8 *180:113 0.000522439
45 *171:10 *186:60 0.000618271
46 *171:10 *214:68 0.00062505
47 *171:16 *2221:B1 7.19848e-05
48 *171:16 *179:170 0.000162421
49 *171:16 *179:194 4.12435e-05
50 *171:16 *186:60 0.00162968
51 *171:16 *187:34 0.000103974
52 *171:16 *187:66 0.000284988
53 *171:16 *214:68 0.00100631
54 *171:66 *234:DIODE 0.000136733
55 *171:66 *2181:B 0.000126141
56 *171:66 *2202:A 0.000289885
57 *171:66 *200:48 0.000130707
58 *171:66 *202:24 0.0001773
59 *171:66 *202:94 0.00018503
60 *171:66 *203:78 0.000216755
61 *171:66 *209:43 0.000194182
62 *171:86 *202:24 0.000153094
63 *171:86 *212:12 0.000311825
64 *171:92 *179:106 0.000873089
65 *171:92 *194:73 0.000111992
66 *171:92 *199:142 0.000243627
67 *171:92 *205:28 0.000658303
68 *171:116 *178:10 4.27842e-06
69 *171:116 *178:16 0.000137327
70 *171:116 *198:14 0.00178857
71 *171:116 *219:26 0.00144519
72 *171:135 *203:50 0
73 *171:170 *354:DIODE 7.83659e-05
74 *171:170 *384:DIODE 0
75 *171:170 *2216:A 0
76 *171:170 *186:60 0.00159218
77 *171:170 *214:68 0.00117412
78 *171:170 *214:87 8.01784e-05
79 *171:180 *384:DIODE 0.000186669
80 *171:180 *2216:A 5.52302e-05
81 *171:180 *213:122 0.000392392
82 *171:198 *213:122 0.00161626
83 *171:198 *214:87 2.8266e-06
84 *171:198 *214:98 1.37292e-05
85 *171:252 *180:111 0.000312653
86 *2308:A *171:198 2.44318e-05
87 *2357:RESET_B *171:16 1.97865e-05
88 *2364:D *171:135 4.17702e-05
89 *2372:RESET_B *171:230 0.000428486
90 *2372:RESET_B *171:238 0.000183477
91 *2373:RESET_B *171:135 0.000139464
92 *2374:RESET_B *171:116 4.83516e-05
93 *16:8 *171:116 0.000137327
94 *21:24 *171:86 0.000309894
95 *21:24 *171:92 0.000118985
96 *30:16 *171:120 6.05161e-06
97 *30:16 *171:135 8.74791e-05
98 *34:8 *171:135 0.000882638
99 *35:30 *171:116 5.39199e-05
100 *35:30 *171:120 0.000521326
101 *35:30 *171:135 0.000141036
102 *51:22 *171:86 0
103 *51:22 *171:92 0
104 *55:20 *522:DIODE 0.000211454
105 *55:20 *171:66 0.000218679
106 *58:12 *171:198 0.000861382
107 *58:12 *171:211 1.69961e-05
108 *58:16 *171:211 5.52238e-05
109 *58:16 *171:230 0.0001839
110 *66:24 *171:135 0.000141047
111 *67:16 *171:180 5.17016e-05
112 *69:8 *171:238 0.000143375
113 *71:16 *529:DIODE 0.000263734
114 *71:16 *171:120 0.000392856
115 *94:20 *171:238 2.33986e-05
116 *94:20 *171:252 0
117 *94:26 *171:86 0.00150072
118 *94:26 *171:92 0.000543835
119 *95:18 *171:238 0
120 *95:18 *171:252 0.000240549
121 *95:24 *171:86 0
122 *96:46 *171:211 0
123 *97:24 *171:66 0.000113064
124 *97:24 *171:230 0.000164018
125 *104:30 *171:230 0.000185817
126 *106:134 *171:180 0.000210302
127 *106:134 *171:198 0.000111372
128 *117:26 *171:66 0.000498026
129 *117:26 *171:86 8.17613e-06
130 *118:28 *171:66 0.000140344
131 *118:28 *171:230 0.00118981
132 *125:10 *171:230 0.000256382
133 *126:20 *2317:A 3.67257e-05
134 *126:20 *171:135 4.45768e-06
135 *133:16 *171:86 4.10444e-05
136 *134:224 *171:16 1.39726e-05
137 *138:26 *171:86 0.00148831
138 *143:20 *171:116 0.000182533
139 *143:28 *171:116 0.000114673
140 *144:37 *171:66 0.000141167
141 *152:36 *2314:A 3.45371e-05
142 *152:36 *171:34 0.000603344
143 *152:36 *171:41 1.93007e-05
144 *152:36 *171:66 0.000784561
145 *153:55 *526:DIODE 4.00276e-06
146 *153:55 *171:16 2.13481e-06
147 *163:24 *171:252 9.97164e-05
148 *164:18 *171:92 0
149 *169:24 *171:8 0.000343591
150 *169:34 *171:8 9.71197e-05
151 *169:34 *171:16 0.00106926
152 *169:228 *171:198 2.88018e-06
153 *170:135 *171:230 0.000146261
154 *170:151 *171:230 0.000881707
155 *170:173 *171:230 4.49293e-05
*RES
1 *2312:X *171:8 18.8536 
2 *171:8 *171:10 8.01786 
3 *171:10 *171:16 36.4821 
4 *171:16 *526:DIODE 9.83571 
5 *171:16 *2319:A 10.3357 
6 *171:10 *171:34 21.4643 
7 *171:34 *521:DIODE 9.3 
8 *171:34 *171:41 0.535714 
9 *171:41 *2314:A 10.0321 
10 *171:41 *171:66 37.7321 
11 *171:66 *171:86 45.7123 
12 *171:86 *171:92 30.2679 
13 *171:92 *528:DIODE 10.6571 
14 *171:92 *2321:A 9.3 
15 *171:86 *171:116 40.5179 
16 *171:116 *171:120 5.78571 
17 *171:120 *2322:A 9.3 
18 *171:120 *171:135 22.6607 
19 *171:135 *2317:A 10.9786 
20 *171:135 *524:DIODE 9.3 
21 *171:116 *529:DIODE 12.7107 
22 *171:66 *2315:A 9.3 
23 *171:66 *522:DIODE 11.4786 
24 *171:8 *171:170 24.7143 
25 *171:170 *171:180 14.2321 
26 *171:180 *525:DIODE 9.83571 
27 *171:180 *2318:A 9.3 
28 *171:170 *171:198 33.6964 
29 *171:198 *523:DIODE 9.3 
30 *171:198 *171:211 10.6786 
31 *171:211 *2316:A 9.3 
32 *171:211 *171:230 34.6071 
33 *171:230 *171:238 11.5 
34 *171:238 *171:252 20.6429 
35 *171:252 *2313:A 9.3 
36 *171:252 *520:DIODE 10.6571 
37 *171:238 *2320:A 9.3 
38 *171:230 *527:DIODE 9.3 
*END

*D_NET *172 0.0436226
*CONN
*I *539:DIODE I *D sky130_fd_sc_hd__diode_2
*I *2332:A I *D sky130_fd_sc_hd__inv_2
*I *538:DIODE I *D sky130_fd_sc_hd__diode_2
*I *2331:A I *D sky130_fd_sc_hd__inv_2
*I *531:DIODE I *D sky130_fd_sc_hd__diode_2
*I *2324:A I *D sky130_fd_sc_hd__inv_2
*I *540:DIODE I *D sky130_fd_sc_hd__diode_2
*I *2333:A I *D sky130_fd_sc_hd__inv_2
*I *2328:A I *D sky130_fd_sc_hd__inv_2
*I *535:DIODE I *D sky130_fd_sc_hd__diode_2
*I *534:DIODE I *D sky130_fd_sc_hd__diode_2
*I *533:DIODE I *D sky130_fd_sc_hd__diode_2
*I *2326:A I *D sky130_fd_sc_hd__inv_2
*I *2327:A I *D sky130_fd_sc_hd__inv_2
*I *532:DIODE I *D sky130_fd_sc_hd__diode_2
*I *2325:A I *D sky130_fd_sc_hd__inv_2
*I *537:DIODE I *D sky130_fd_sc_hd__diode_2
*I *2330:A I *D sky130_fd_sc_hd__inv_2
*I *2329:A I *D sky130_fd_sc_hd__inv_2
*I *536:DIODE I *D sky130_fd_sc_hd__diode_2
*I *2323:X O *D sky130_fd_sc_hd__buf_4
*CAP
1 *539:DIODE 0
2 *2332:A 0.000154628
3 *538:DIODE 0.000183507
4 *2331:A 1.69531e-05
5 *531:DIODE 0
6 *2324:A 3.76187e-05
7 *540:DIODE 0.000153152
8 *2333:A 0
9 *2328:A 0.000156778
10 *535:DIODE 0
11 *534:DIODE 0
12 *533:DIODE 0
13 *2326:A 0.000232288
14 *2327:A 3.03586e-05
15 *532:DIODE 0
16 *2325:A 0.000142259
17 *537:DIODE 0
18 *2330:A 9.41586e-05
19 *2329:A 0.00011151
20 *536:DIODE 4.36033e-05
21 *2323:X 0.000322663
22 *172:214 0.000326917
23 *172:208 0.000336851
24 *172:206 0.000454736
25 *172:188 0.00181723
26 *172:178 0.00236171
27 *172:162 0.00018995
28 *172:160 0.00160464
29 *172:133 0.000326525
30 *172:98 0.000607674
31 *172:96 0.000549626
32 *172:94 0.000240201
33 *172:90 0.000456999
34 *172:88 0.00197564
35 *172:64 0.000258654
36 *172:62 0.00284172
37 *172:50 0.00247513
38 *172:46 0.00250845
39 *172:21 0.00257331
40 *172:10 0.000459181
41 *536:DIODE *189:22 5.33005e-05
42 *540:DIODE *564:DIODE 0.000116011
43 *2324:A *178:95 0.000136951
44 *2329:A *218:50 2.06112e-05
45 *2330:A *185:84 5.59013e-05
46 *2330:A *202:44 0.000188848
47 *2331:A *200:48 5.33005e-05
48 *172:10 *180:52 2.31127e-05
49 *172:21 *218:50 6.1271e-06
50 *172:46 *2180:B 3.14048e-05
51 *172:46 *175:33 0.000258837
52 *172:46 *190:34 9.58478e-05
53 *172:46 *190:138 1.92905e-05
54 *172:46 *217:30 0.000314713
55 *172:62 *441:DIODE 0.000185394
56 *172:62 *174:156 3.63775e-05
57 *172:62 *174:165 0.000418132
58 *172:62 *186:30 0.000399176
59 *172:62 *188:22 0.000137983
60 *172:62 *201:65 0.000699325
61 *172:64 *185:84 0.000340993
62 *172:88 *181:10 0.000284872
63 *172:88 *181:12 0.000836695
64 *172:88 *181:22 0.00010403
65 *172:88 *185:84 0.00151823
66 *172:160 *184:54 0
67 *172:160 *209:39 0.000678572
68 *172:160 *209:57 0.0001573
69 *172:188 *564:DIODE 7.3384e-06
70 *172:214 *178:95 2.78608e-05
71 *438:DIODE *172:21 0
72 *565:DIODE *172:188 0.000110029
73 *2217:A *172:214 0.000385083
74 *2351:RESET_B *172:188 9.99644e-06
75 *2352:RESET_B *172:206 9.23975e-05
76 *2359:RESET_B *172:62 1.5424e-05
77 *2364:RESET_B *172:10 5.52238e-05
78 *2376:RESET_B *172:46 0.000167151
79 *2376:RESET_B *172:50 9.63055e-05
80 *21:24 *172:206 9.26068e-05
81 *21:24 *172:208 6.85383e-05
82 *21:24 *172:214 0.000544442
83 *21:36 *172:188 0.000131305
84 *27:14 *172:62 9.18242e-05
85 *37:12 *538:DIODE 0.000269378
86 *51:12 *172:62 0
87 *59:16 *172:188 0.000268853
88 *71:16 *172:10 5.94205e-05
89 *73:12 *2325:A 5.9781e-05
90 *73:12 *2327:A 6.47765e-05
91 *73:12 *172:90 0.000165627
92 *73:12 *172:94 0.000169359
93 *73:12 *172:96 6.90625e-05
94 *73:12 *172:98 0.000417304
95 *73:12 *172:160 0.000263243
96 *74:8 *2326:A 0.000224577
97 *75:16 *172:94 9.41642e-05
98 *75:16 *172:96 5.33005e-05
99 *76:8 *2328:A 0.000123068
100 *76:8 *172:162 9.35114e-06
101 *76:8 *172:178 0.000193658
102 *76:8 *172:206 3.80414e-05
103 *80:12 *172:46 7.66181e-05
104 *80:22 *172:10 0.000591997
105 *80:22 *172:21 0.000154007
106 *80:22 *172:46 0.000720579
107 *81:8 *540:DIODE 0.000183587
108 *82:16 *172:178 0.000229092
109 *90:18 *172:88 0.000155935
110 *93:10 *172:188 0.000357381
111 *94:20 *172:206 0.000101173
112 *94:20 *172:208 7.49777e-05
113 *94:20 *172:214 0.000542918
114 *95:18 *172:188 0.000231328
115 *95:24 *172:62 4.33438e-05
116 *96:14 *2330:A 9.2355e-05
117 *99:27 *172:62 9.41642e-05
118 *100:75 *2326:A 1.39841e-05
119 *106:38 *172:178 0.000938815
120 *106:38 *172:206 8.2607e-05
121 *106:51 *172:206 0.000301438
122 *106:62 *2331:A 5.33005e-05
123 *115:14 *172:133 0.000315887
124 *116:72 *172:133 0.000315887
125 *118:28 *172:188 0.000445925
126 *120:18 *2330:A 5.59013e-05
127 *120:18 *172:64 0.000291181
128 *131:44 *172:64 2.70899e-05
129 *131:44 *172:88 0.000152695
130 *144:37 *172:188 0.000212049
131 *146:16 *2332:A 0.000253285
132 *146:16 *172:62 0.000166357
133 *148:14 *2324:A 0.000136951
134 *148:14 *172:214 0.000416471
135 *151:69 *172:46 0.000138826
136 *154:10 *172:46 0
*RES
1 *2323:X *172:10 22.05 
2 *172:10 *536:DIODE 14.3357 
3 *172:10 *172:21 2.09821 
4 *172:21 *2329:A 15.0232 
5 *172:21 *172:46 49.6518 
6 *172:46 *172:50 6.26786 
7 *172:50 *172:62 40.6607 
8 *172:62 *172:64 4.67857 
9 *172:64 *2330:A 16.7286 
10 *172:64 *537:DIODE 13.8 
11 *172:62 *172:88 24.3571 
12 *172:88 *172:90 4.64286 
13 *172:90 *172:94 2.5 
14 *172:94 *172:96 1.35714 
15 *172:96 *172:98 8.33929 
16 *172:98 *2325:A 12.55 
17 *172:98 *532:DIODE 9.3 
18 *172:96 *2327:A 10.3893 
19 *172:94 *172:133 13.0714 
20 *172:133 *2326:A 12.6214 
21 *172:133 *533:DIODE 9.3 
22 *172:90 *534:DIODE 9.3 
23 *172:88 *172:160 27.5714 
24 *172:160 *172:162 0.535714 
25 *172:162 *535:DIODE 9.3 
26 *172:162 *2328:A 12.6214 
27 *172:160 *172:178 12.0357 
28 *172:178 *172:188 37.6964 
29 *172:188 *2333:A 9.3 
30 *172:188 *540:DIODE 13.1214 
31 *172:178 *172:206 10.4821 
32 *172:206 *172:208 1.03571 
33 *172:208 *172:214 15.8393 
34 *172:214 *2324:A 10.6571 
35 *172:214 *531:DIODE 9.3 
36 *172:208 *2331:A 14.3357 
37 *172:206 *538:DIODE 16.3893 
38 *172:50 *2332:A 17.2643 
39 *172:46 *539:DIODE 9.3 
*END

*D_NET *173 0.0158004
*CONN
*I *2382:A I *D sky130_fd_sc_hd__clkbuf_16
*I *2383:A I *D sky130_fd_sc_hd__clkbuf_16
*I *2381:A I *D sky130_fd_sc_hd__clkbuf_16
*I *2380:A I *D sky130_fd_sc_hd__clkbuf_16
*I *2379:X O *D sky130_fd_sc_hd__clkbuf_16
*CAP
1 *2382:A 0.000549169
2 *2383:A 0.000571155
3 *2381:A 0.000460588
4 *2380:A 0.000377577
5 *2379:X 6.69766e-05
6 *173:52 0.00216251
7 *173:18 0.0023805
8 *173:14 0.0026515
9 *2381:A *2193:A 9.41642e-05
10 *2381:A *2193:B 9.41642e-05
11 *2381:A *2341:CLK 2.11419e-05
12 *2381:A *175:33 0.000160293
13 *2382:A *207:37 1.26512e-05
14 *2383:A *180:107 1.03926e-05
15 *2383:A *205:68 1.80461e-05
16 *173:14 *207:37 2.66789e-06
17 *173:18 *190:16 0.000168219
18 *2223:B *173:18 0.000135968
19 *2368:D *173:14 2.06178e-05
20 *2368:D *173:52 0.000215502
21 *39:24 *2381:A 0.000125335
22 *51:22 *2380:A 2.30218e-05
23 *75:32 *2380:A 6.70818e-05
24 *75:32 *2381:A 2.80175e-05
25 *89:12 *173:14 2.22043e-05
26 *89:12 *173:18 0.000271408
27 *103:8 *2381:A 5.33005e-05
28 *107:10 *173:18 0.000121549
29 *124:16 *2380:A 0
30 *127:20 *2383:A 0.000821829
31 *133:16 *173:14 9.08889e-06
32 *141:58 *173:52 0.000124022
33 *141:68 *2382:A 1.47728e-05
34 *141:114 *2382:A 2.30314e-05
35 *151:92 *2381:A 0.000113522
36 *153:20 *2380:A 4.31928e-05
37 *153:20 *2381:A 3.24834e-05
38 *158:22 *2382:A 7.76075e-06
39 *163:60 *2382:A 0.000601299
40 *163:60 *173:18 0.00175373
41 *163:60 *173:52 0.00137
*RES
1 *2379:X *173:14 20.9798 
2 *173:14 *173:18 7.18567 
3 *173:18 *2380:A 18.3779 
4 *173:18 *2381:A 23.9824 
5 *173:14 *173:52 2.9234 
6 *173:52 *2383:A 22.5806 
7 *173:52 *2382:A 22.7153 
*END

*D_NET *174 0.0284631
*CONN
*I *613:DIODE I *D sky130_fd_sc_hd__diode_2
*I *2384:A I *D sky130_fd_sc_hd__clkinv_2
*I *575:DIODE I *D sky130_fd_sc_hd__diode_2
*I *548:DIODE I *D sky130_fd_sc_hd__diode_2
*I *2341:CLK I *D sky130_fd_sc_hd__dfrtp_4
*I *2357:CLK I *D sky130_fd_sc_hd__dfrtp_4
*I *555:DIODE I *D sky130_fd_sc_hd__diode_2
*I *2345:CLK I *D sky130_fd_sc_hd__dfrtp_4
*I *602:DIODE I *D sky130_fd_sc_hd__diode_2
*I *2371:CLK I *D sky130_fd_sc_hd__dfrtp_2
*I *578:DIODE I *D sky130_fd_sc_hd__diode_2
*I *2359:CLK I *D sky130_fd_sc_hd__dfrtp_4
*I *596:DIODE I *D sky130_fd_sc_hd__diode_2
*I *2367:CLK I *D sky130_fd_sc_hd__dfrtp_2
*I *586:DIODE I *D sky130_fd_sc_hd__diode_2
*I *2363:CLK I *D sky130_fd_sc_hd__dfrtp_4
*I *579:DIODE I *D sky130_fd_sc_hd__diode_2
*I *2360:CLK I *D sky130_fd_sc_hd__dfrtp_4
*I *2380:X O *D sky130_fd_sc_hd__clkbuf_16
*CAP
1 *613:DIODE 4.45684e-05
2 *2384:A 0
3 *575:DIODE 0
4 *548:DIODE 7.50546e-05
5 *2341:CLK 0.000225771
6 *2357:CLK 0
7 *555:DIODE 0
8 *2345:CLK 4.9775e-05
9 *602:DIODE 0
10 *2371:CLK 0
11 *578:DIODE 0.000169636
12 *2359:CLK 7.18334e-05
13 *596:DIODE 0
14 *2367:CLK 0.000160643
15 *586:DIODE 0
16 *2363:CLK 4.53051e-05
17 *579:DIODE 0
18 *2360:CLK 5.64721e-05
19 *2380:X 0
20 *174:173 0.000735057
21 *174:165 0.00085096
22 *174:156 0.00063708
23 *174:139 0.000240677
24 *174:126 0.000298952
25 *174:92 0.000616042
26 *174:72 0.000917067
27 *174:54 0.000759989
28 *174:41 0.000867918
29 *174:28 0.000877722
30 *174:26 0.00176602
31 *174:24 0.000817253
32 *174:18 0.000501873
33 *174:16 0.000579275
34 *174:10 0.000480129
35 *174:6 0.000132792
36 *174:4 0.000104588
37 *578:DIODE *185:84 0.000142974
38 *2341:CLK *250:DIODE 0.000100823
39 *2341:CLK *2186:D_N 5.33005e-05
40 *2341:CLK *175:33 5.43182e-05
41 *2359:CLK *201:48 0.000135028
42 *2363:CLK *197:18 8.07313e-05
43 *174:6 *209:142 0.000177815
44 *174:10 *209:142 0.00026546
45 *174:16 *182:32 0.000171068
46 *174:16 *189:22 8.43386e-05
47 *174:18 *189:22 0.00013926
48 *174:18 *206:14 0.000155246
49 *174:18 *206:40 2.36971e-05
50 *174:26 *185:84 0.00097586
51 *174:28 *2224:A 0
52 *174:28 *185:84 0.000146474
53 *174:41 *183:67 0.000226279
54 *174:54 *183:67 0.000962548
55 *174:92 *185:84 0.000933173
56 *174:126 *182:32 0.000125216
57 *174:156 *206:40 0.000168224
58 *174:156 *210:86 0.000166503
59 *174:165 *190:6 0.000139202
60 *174:165 *190:16 6.05161e-06
61 *174:165 *217:30 0.00019855
62 *262:DIODE *174:18 0.000219366
63 *2290:A *174:26 0.000966609
64 *2290:A *174:28 0.000168939
65 *2357:RESET_B *578:DIODE 0.000139485
66 *2357:RESET_B *174:165 9.55545e-05
67 *2359:D *2359:CLK 8.70594e-05
68 *2360:D *2360:CLK 6.67311e-05
69 *2363:D *2363:CLK 8.07313e-05
70 *2363:RESET_B *2360:CLK 4.45204e-05
71 *2363:RESET_B *174:28 3.32662e-05
72 *2367:D *2367:CLK 9.3111e-05
73 *2367:D *174:72 0.000545423
74 *2371:D *174:18 6.7224e-05
75 *2371:D *174:24 0.000348827
76 *2371:RESET_B *174:18 0.000108222
77 *2381:A *2341:CLK 2.11419e-05
78 *17:22 *174:18 0.000311305
79 *17:22 *174:24 0.000326295
80 *17:28 *174:16 9.58632e-05
81 *17:28 *174:18 0.000721718
82 *26:10 *2367:CLK 8.08022e-05
83 *27:14 *174:156 0.000135028
84 *27:14 *174:165 6.42095e-05
85 *30:18 *2360:CLK 4.27842e-06
86 *30:18 *174:28 0.000459407
87 *39:24 *2341:CLK 0.000237913
88 *40:18 *174:54 0.000116161
89 *48:12 *548:DIODE 8.17274e-05
90 *48:12 *174:173 0.000303362
91 *51:12 *174:173 0.000505764
92 *55:14 *613:DIODE 0.00012401
93 *87:10 *174:126 0.000310307
94 *89:12 *174:173 0.000514797
95 *90:18 *174:92 0.000110498
96 *96:20 *174:16 0.000352356
97 *96:20 *174:126 0.000394182
98 *96:46 *174:126 0.000168224
99 *105:24 *578:DIODE 5.51406e-05
100 *105:24 *174:92 0.000442882
101 *113:30 *2345:CLK 0.000110091
102 *113:30 *174:139 1.98839e-05
103 *113:30 *174:156 0.000199635
104 *116:48 *2345:CLK 2.77143e-05
105 *116:48 *174:139 1.98839e-05
106 *116:48 *174:156 0.000219711
107 *120:18 *174:28 6.17814e-05
108 *123:18 *613:DIODE 0.000125724
109 *131:16 *578:DIODE 2.20282e-05
110 *131:16 *2359:CLK 9.60343e-05
111 *131:16 *174:92 5.1588e-05
112 *134:39 *2341:CLK 2.42516e-05
113 *134:39 *174:6 8.11174e-05
114 *134:39 *174:10 0.000137447
115 *134:65 *2341:CLK 1.21258e-05
116 *158:24 *2367:CLK 8.25098e-05
117 *172:62 *174:156 3.63775e-05
118 *172:62 *174:165 0.000418132
*RES
1 *2380:X *174:4 9.3 
2 *174:4 *174:6 1.76786 
3 *174:6 *174:10 7.08929 
4 *174:10 *174:16 10.125 
5 *174:16 *174:18 12.8571 
6 *174:18 *174:24 8.33929 
7 *174:24 *174:26 12.875 
8 *174:26 *174:28 14.6964 
9 *174:28 *2360:CLK 15.4429 
10 *174:28 *174:41 6.67857 
11 *174:41 *579:DIODE 9.3 
12 *174:41 *174:54 19.5 
13 *174:54 *2363:CLK 11.0857 
14 *174:54 *586:DIODE 9.3 
15 *174:26 *174:72 14.4821 
16 *174:72 *2367:CLK 21.1036 
17 *174:72 *596:DIODE 9.3 
18 *174:24 *174:92 12.2679 
19 *174:92 *2359:CLK 15.9786 
20 *174:92 *578:DIODE 17.1036 
21 *174:18 *2371:CLK 9.3 
22 *174:16 *602:DIODE 9.3 
23 *174:10 *174:126 11.9107 
24 *174:126 *2345:CLK 11.1036 
25 *174:126 *174:139 0.535714 
26 *174:139 *555:DIODE 9.3 
27 *174:139 *174:156 15.2143 
28 *174:156 *2357:CLK 9.3 
29 *174:156 *174:165 10.8214 
30 *174:165 *174:173 18.8036 
31 *174:173 *2341:CLK 23.2286 
32 *174:173 *548:DIODE 10.2464 
33 *174:165 *575:DIODE 9.3 
34 *174:6 *2384:A 9.3 
35 *174:4 *613:DIODE 19.9429 
*END

*D_NET *175 0.0354829
*CONN
*I *2347:CLK I *D sky130_fd_sc_hd__dfrtp_4
*I *558:DIODE I *D sky130_fd_sc_hd__diode_2
*I *549:DIODE I *D sky130_fd_sc_hd__diode_2
*I *2354:CLK I *D sky130_fd_sc_hd__dfrtp_2
*I *568:DIODE I *D sky130_fd_sc_hd__diode_2
*I *2342:CLK I *D sky130_fd_sc_hd__dfrtp_4
*I *2362:CLK I *D sky130_fd_sc_hd__dfrtp_4
*I *583:DIODE I *D sky130_fd_sc_hd__diode_2
*I *589:DIODE I *D sky130_fd_sc_hd__diode_2
*I *2364:CLK I *D sky130_fd_sc_hd__dfrtp_2
*I *2343:CLK I *D sky130_fd_sc_hd__dfrtp_4
*I *551:DIODE I *D sky130_fd_sc_hd__diode_2
*I *598:DIODE I *D sky130_fd_sc_hd__diode_2
*I *2369:CLK I *D sky130_fd_sc_hd__dfrtp_4
*I *563:DIODE I *D sky130_fd_sc_hd__diode_2
*I *2350:CLK I *D sky130_fd_sc_hd__dfrtp_4
*I *561:DIODE I *D sky130_fd_sc_hd__diode_2
*I *2349:CLK I *D sky130_fd_sc_hd__dfrtp_4
*I *611:DIODE I *D sky130_fd_sc_hd__diode_2
*I *2353:CLK I *D sky130_fd_sc_hd__dfrtp_4
*I *567:DIODE I *D sky130_fd_sc_hd__diode_2
*I *2377:CLK I *D sky130_fd_sc_hd__dfrtp_4
*I *2381:X O *D sky130_fd_sc_hd__clkbuf_16
*CAP
1 *2347:CLK 0.00011082
2 *558:DIODE 0
3 *549:DIODE 0
4 *2354:CLK 7.88773e-05
5 *568:DIODE 0
6 *2342:CLK 3.26257e-05
7 *2362:CLK 3.7657e-05
8 *583:DIODE 0
9 *589:DIODE 4.36033e-05
10 *2364:CLK 0.000837154
11 *2343:CLK 9.27184e-05
12 *551:DIODE 0
13 *598:DIODE 0
14 *2369:CLK 8.34195e-05
15 *563:DIODE 0
16 *2350:CLK 0.000894929
17 *561:DIODE 0
18 *2349:CLK 0.000644993
19 *611:DIODE 0
20 *2353:CLK 0.000187616
21 *567:DIODE 0
22 *2377:CLK 0
23 *2381:X 0.000599099
24 *175:242 0.000187775
25 *175:219 0.000447776
26 *175:206 0.000420905
27 *175:195 0.000156028
28 *175:189 0.00029248
29 *175:185 0.000638912
30 *175:168 0.000865391
31 *175:153 0.000670987
32 *175:140 0.00118342
33 *175:124 9.27184e-05
34 *175:108 0.000653841
35 *175:92 0.00106702
36 *175:90 0.00129652
37 *175:86 0.000727257
38 *175:84 0.0011842
39 *175:75 0.00112012
40 *175:64 0.00136449
41 *175:33 0.00107286
42 *175:24 0.000938396
43 *175:18 0.000216079
44 *175:16 0.00115655
45 *2342:CLK *194:18 1.98839e-05
46 *2343:CLK *220:36 0.000167876
47 *2349:CLK *213:12 1.55953e-05
48 *2353:CLK *186:98 4.69248e-05
49 *2353:CLK *207:37 1.6507e-05
50 *2362:CLK *211:10 2.82057e-05
51 *175:16 *178:8 0.000153019
52 *175:16 *178:10 5.36422e-05
53 *175:16 *178:48 0.000355063
54 *175:18 *178:8 0.000348865
55 *175:18 *213:24 4.17702e-05
56 *175:24 *178:8 0.000141941
57 *175:24 *213:24 0.000143583
58 *175:24 *213:182 0
59 *175:33 *250:DIODE 0.000100823
60 *175:33 *2186:B 0.000192141
61 *175:33 *213:182 0
62 *175:64 *190:44 0
63 *175:64 *204:82 0.000645643
64 *175:75 *213:12 1.44094e-05
65 *175:86 *203:50 0
66 *175:90 *180:20 0
67 *175:90 *203:50 0
68 *175:185 *211:38 0.000623686
69 *175:219 *211:10 9.90819e-06
70 *175:219 *211:60 0.000350859
71 *550:DIODE *2362:CLK 7.83587e-05
72 *550:DIODE *175:206 5.41794e-05
73 *550:DIODE *175:219 3.22325e-05
74 *552:DIODE *2343:CLK 0.000143651
75 *559:DIODE *175:219 0.000177941
76 *2223:B *2353:CLK 2.28343e-05
77 *2223:B *175:33 0.00115699
78 *2303:A *175:84 8.52195e-05
79 *2341:CLK *175:33 5.43182e-05
80 *2342:D *2342:CLK 5.33005e-05
81 *2342:RESET_B *2342:CLK 9.41642e-05
82 *2342:RESET_B *175:189 0.000183344
83 *2342:RESET_B *175:195 7.2159e-05
84 *2343:RESET_B *2343:CLK 8.91805e-05
85 *2347:D *2347:CLK 7.32173e-05
86 *2349:RESET_B *2349:CLK 0.000202996
87 *2350:RESET_B *2350:CLK 0.000482113
88 *2350:RESET_B *175:92 0.000260497
89 *2350:RESET_B *175:108 0.000818573
90 *2353:D *2353:CLK 0.000240224
91 *2354:D *2354:CLK 0.00014183
92 *2354:RESET_B *2354:CLK 9.60939e-05
93 *2354:RESET_B *175:219 7.74135e-05
94 *2362:RESET_B *175:185 0.000189947
95 *2364:RESET_B *2364:CLK 0.000302376
96 *2366:RESET_B *175:185 9.34004e-05
97 *2366:RESET_B *175:242 8.44027e-05
98 *2368:D *2353:CLK 4.01284e-05
99 *2369:RESET_B *2369:CLK 5.23822e-05
100 *2381:A *175:33 0.000160293
101 *16:8 *175:16 6.14702e-06
102 *28:20 *175:219 0.000108549
103 *31:24 *175:219 1.10632e-05
104 *39:24 *175:33 0.000252076
105 *40:18 *2350:CLK 0.00014225
106 *41:22 *2364:CLK 4.72185e-05
107 *50:12 *2349:CLK 5.52238e-05
108 *51:22 *2350:CLK 6.36119e-05
109 *53:12 *175:84 0.000139632
110 *54:12 *2369:CLK 4.94761e-05
111 *54:12 *175:108 2.57826e-06
112 *58:26 *175:219 9.22948e-05
113 *73:18 *175:168 4.10926e-05
114 *73:18 *175:185 0.0001826
115 *80:12 *175:33 0
116 *80:22 *175:86 0.00028148
117 *80:22 *175:90 0.000533388
118 *80:22 *175:140 0.000373046
119 *80:22 *175:153 0.000178528
120 *80:22 *175:168 0.000814441
121 *107:10 *175:33 5.85223e-05
122 *110:10 *175:185 0.000177948
123 *110:10 *175:242 0.000161512
124 *119:24 *2353:CLK 4.43139e-05
125 *119:24 *175:33 1.06172e-05
126 *123:18 *175:64 0.000157454
127 *126:12 *2362:CLK 0.000128146
128 *126:12 *175:206 4.66511e-05
129 *126:12 *175:219 0.00107753
130 *143:28 *589:DIODE 5.33005e-05
131 *151:69 *175:168 0.000192595
132 *151:92 *175:16 9.66977e-05
133 *151:92 *175:24 5.58405e-05
134 *151:92 *175:33 0.000341223
135 *153:20 *175:16 9.66977e-05
136 *156:65 *175:16 7.88303e-05
137 *156:71 *175:16 0.00019255
138 *156:91 *175:16 5.50052e-05
139 *169:125 *175:140 7.27855e-05
140 *170:14 *175:84 0.000269795
141 *172:46 *175:33 0.000258837
*RES
1 *2381:X *175:16 29.6036 
2 *175:16 *175:18 3.41071 
3 *175:18 *175:24 6.58929 
4 *175:24 *2377:CLK 13.8 
5 *175:24 *175:33 24.1071 
6 *175:33 *567:DIODE 13.8 
7 *175:33 *2353:CLK 18.6571 
8 *175:18 *611:DIODE 9.3 
9 *175:16 *175:64 17.625 
10 *175:64 *2349:CLK 17.55 
11 *175:64 *175:75 3.41071 
12 *175:75 *561:DIODE 9.3 
13 *175:75 *175:84 14.4821 
14 *175:84 *175:86 3.76786 
15 *175:86 *175:90 15.5536 
16 *175:90 *175:92 2.58929 
17 *175:92 *2350:CLK 21.2464 
18 *175:92 *563:DIODE 9.3 
19 *175:90 *175:108 8.33929 
20 *175:108 *2369:CLK 11.3893 
21 *175:108 *598:DIODE 9.3 
22 *175:86 *175:124 4.5 
23 *175:124 *551:DIODE 9.3 
24 *175:124 *2343:CLK 12.7286 
25 *175:84 *175:140 4.98214 
26 *175:140 *2364:CLK 24.1036 
27 *175:140 *175:153 2.55357 
28 *175:153 *589:DIODE 14.3357 
29 *175:153 *175:168 16.1964 
30 *175:168 *583:DIODE 9.3 
31 *175:168 *175:185 15.25 
32 *175:185 *175:189 7.91071 
33 *175:189 *175:195 5.875 
34 *175:195 *2362:CLK 15.4429 
35 *175:195 *175:206 0.732143 
36 *175:206 *2342:CLK 14.7464 
37 *175:206 *175:219 18.5893 
38 *175:219 *568:DIODE 9.3 
39 *175:219 *2354:CLK 11.3893 
40 *175:189 *549:DIODE 9.3 
41 *175:185 *175:242 6.75 
42 *175:242 *558:DIODE 9.3 
43 *175:242 *2347:CLK 11.3893 
*END

*D_NET *176 0.0267053
*CONN
*I *560:DIODE I *D sky130_fd_sc_hd__diode_2
*I *2348:CLK I *D sky130_fd_sc_hd__dfrtp_2
*I *564:DIODE I *D sky130_fd_sc_hd__diode_2
*I *2355:CLK I *D sky130_fd_sc_hd__dfrtp_2
*I *576:DIODE I *D sky130_fd_sc_hd__diode_2
*I *2358:CLK I *D sky130_fd_sc_hd__dfrtp_4
*I *582:DIODE I *D sky130_fd_sc_hd__diode_2
*I *2361:CLK I *D sky130_fd_sc_hd__dfrtp_4
*I *570:DIODE I *D sky130_fd_sc_hd__diode_2
*I *2351:CLK I *D sky130_fd_sc_hd__dfrtp_4
*I *557:DIODE I *D sky130_fd_sc_hd__diode_2
*I *2346:CLK I *D sky130_fd_sc_hd__dfrtp_4
*I *614:DIODE I *D sky130_fd_sc_hd__diode_2
*I *2385:A I *D sky130_fd_sc_hd__clkinvlp_4
*I *2382:X O *D sky130_fd_sc_hd__clkbuf_16
*CAP
1 *560:DIODE 0.00031074
2 *2348:CLK 0.000125934
3 *564:DIODE 0.000782507
4 *2355:CLK 0
5 *576:DIODE 0
6 *2358:CLK 5.18454e-05
7 *582:DIODE 0
8 *2361:CLK 0.000954838
9 *570:DIODE 0
10 *2351:CLK 0
11 *557:DIODE 0.000372049
12 *2346:CLK 0.000157568
13 *614:DIODE 0
14 *2385:A 0.000188343
15 *2382:X 0
16 *176:142 0.00138322
17 *176:123 0.00184301
18 *176:102 0.000371948
19 *176:82 0.00190417
20 *176:76 0.00126944
21 *176:74 0.000111705
22 *176:65 0.00114245
23 *176:63 0.00121849
24 *176:52 0.000349642
25 *176:30 0.00129327
26 *176:17 0.000815495
27 *176:13 0.000327705
28 *176:4 0.000188343
29 *560:DIODE *212:10 0.000171206
30 *2348:CLK *212:10 0.000132341
31 *2358:CLK *185:114 0.000139907
32 *2385:A *180:111 0.000154345
33 *176:17 *212:12 0.000175519
34 *176:30 *197:90 0.000211444
35 *176:52 *212:12 0.000707225
36 *176:63 *212:12 0.000158923
37 *176:74 *188:8 2.59355e-05
38 *176:82 *188:14 0.00165313
39 *176:102 *362:DIODE 6.14702e-06
40 *176:102 *2211:D 0.000155852
41 *176:102 *185:84 0.000102164
42 *176:102 *185:114 0.00014285
43 *176:102 *188:14 5.5764e-05
44 *176:102 *188:102 9.10894e-05
45 *176:142 *212:10 0
46 *176:142 *212:12 0
47 *365:DIODE *176:102 0.000166374
48 *540:DIODE *564:DIODE 0.000116011
49 *2348:D *2348:CLK 7.4576e-05
50 *2348:RESET_B *564:DIODE 3.66572e-05
51 *2348:RESET_B *176:142 0.00144801
52 *2351:RESET_B *564:DIODE 0.000214412
53 *2355:D *176:82 3.67279e-06
54 *2355:D *176:102 3.42969e-05
55 *2355:RESET_B *176:65 0.00018015
56 *2355:RESET_B *176:74 8.35129e-05
57 *2361:RESET_B *2361:CLK 0.000438695
58 *2361:RESET_B *176:82 8.68854e-05
59 *18:10 *176:82 0
60 *18:10 *176:102 0
61 *21:24 *176:17 0.000173804
62 *21:24 *176:52 0.000467239
63 *21:36 *564:DIODE 3.42426e-05
64 *59:16 *176:142 0
65 *66:24 *176:52 0.000222146
66 *66:24 *176:63 2.06112e-05
67 *66:32 *176:63 4.8271e-05
68 *66:32 *176:65 0.00112006
69 *66:32 *176:123 4.37451e-05
70 *90:18 *176:82 0.000165754
71 *94:16 *176:63 1.50223e-05
72 *94:20 *2346:CLK 2.69651e-05
73 *94:20 *176:30 0
74 *94:20 *176:52 1.09232e-05
75 *95:18 *564:DIODE 9.17635e-05
76 *95:18 *2346:CLK 0
77 *95:18 *176:30 0.000744339
78 *100:99 *557:DIODE 8.42878e-05
79 *100:99 *2346:CLK 0.000141786
80 *100:108 *557:DIODE 0.000184246
81 *100:125 *557:DIODE 0.000134635
82 *112:12 *2358:CLK 0.00018077
83 *112:12 *176:102 0.000129515
84 *170:129 *176:65 0.000216755
85 *170:129 *176:123 0.000311284
86 *172:188 *564:DIODE 7.3384e-06
*RES
1 *2382:X *176:4 9.3 
2 *176:4 *2385:A 12.3 
3 *176:4 *176:13 4.5 
4 *176:13 *176:17 6.75 
5 *176:17 *614:DIODE 9.3 
6 *176:17 *176:30 22.6607 
7 *176:30 *2346:CLK 20.6929 
8 *176:30 *557:DIODE 14.3536 
9 *176:13 *176:52 9.53571 
10 *176:52 *2351:CLK 13.8 
11 *176:52 *176:63 6.75 
12 *176:63 *176:65 22.7143 
13 *176:65 *570:DIODE 9.3 
14 *176:65 *176:74 2.19643 
15 *176:74 *176:76 4.5 
16 *176:76 *176:82 26.8214 
17 *176:82 *2361:CLK 20.8357 
18 *176:82 *582:DIODE 9.3 
19 *176:76 *176:102 12.9643 
20 *176:102 *2358:CLK 11.0679 
21 *176:102 *576:DIODE 9.3 
22 *176:74 *2355:CLK 9.3 
23 *176:63 *176:123 7.5 
24 *176:123 *564:DIODE 24.1929 
25 *176:123 *176:142 25.4286 
26 *176:142 *2348:CLK 12.7107 
27 *176:142 *560:DIODE 15.5857 
*END

*D_NET *177 0.0219126
*CONN
*I *2370:CLK I *D sky130_fd_sc_hd__dfrtp_4
*I *600:DIODE I *D sky130_fd_sc_hd__diode_2
*I *592:DIODE I *D sky130_fd_sc_hd__diode_2
*I *2365:CLK I *D sky130_fd_sc_hd__dfrtp_4
*I *2372:CLK I *D sky130_fd_sc_hd__dfrtp_1
*I *604:DIODE I *D sky130_fd_sc_hd__diode_2
*I *615:DIODE I *D sky130_fd_sc_hd__diode_2
*I *2386:A I *D sky130_fd_sc_hd__clkinv_2
*I *2352:CLK I *D sky130_fd_sc_hd__dfrtp_4
*I *566:DIODE I *D sky130_fd_sc_hd__diode_2
*I *2366:CLK I *D sky130_fd_sc_hd__dfrtp_2
*I *594:DIODE I *D sky130_fd_sc_hd__diode_2
*I *2368:CLK I *D sky130_fd_sc_hd__dfrtp_1
*I *597:DIODE I *D sky130_fd_sc_hd__diode_2
*I *2344:CLK I *D sky130_fd_sc_hd__dfrtp_2
*I *2356:CLK I *D sky130_fd_sc_hd__dfrtp_4
*I *572:DIODE I *D sky130_fd_sc_hd__diode_2
*I *553:DIODE I *D sky130_fd_sc_hd__diode_2
*I *2383:X O *D sky130_fd_sc_hd__clkbuf_16
*CAP
1 *2370:CLK 7.61497e-05
2 *600:DIODE 0
3 *592:DIODE 0
4 *2365:CLK 0
5 *2372:CLK 0.000132264
6 *604:DIODE 0
7 *615:DIODE 0
8 *2386:A 0.000102774
9 *2352:CLK 0
10 *566:DIODE 0.000138629
11 *2366:CLK 0.000129575
12 *594:DIODE 0
13 *2368:CLK 0.000145005
14 *597:DIODE 0
15 *2344:CLK 0
16 *2356:CLK 0.000101789
17 *572:DIODE 0
18 *553:DIODE 0
19 *2383:X 0
20 *177:170 0.00151283
21 *177:157 0.00183414
22 *177:136 0.000553364
23 *177:126 0.0005313
24 *177:124 0.000668784
25 *177:108 0.000220218
26 *177:104 0.000357469
27 *177:95 0.000109067
28 *177:84 0.000268854
29 *177:68 0.000684082
30 *177:52 0.00113794
31 *177:50 0.00154744
32 *177:31 0.000558291
33 *177:23 0.0010944
34 *177:12 0.00106263
35 *177:8 0.000495387
36 *177:6 0.000170708
37 *2356:CLK *189:12 0.000135028
38 *2366:CLK *199:82 1.21258e-05
39 *2366:CLK *199:92 4.25569e-05
40 *2366:CLK *200:10 4.58194e-05
41 *2368:CLK *199:92 5.4864e-05
42 *2370:CLK *204:8 0.00010096
43 *2386:A *181:194 6.05161e-06
44 *2386:A *197:90 0.000221634
45 *177:31 *179:10 0.000175519
46 *177:52 *199:92 9.16162e-05
47 *177:68 *199:92 5.54811e-05
48 *177:108 *2263:A 0.000135028
49 *177:108 *181:194 0.000197904
50 *177:108 *197:90 0.00025362
51 *177:124 *216:12 2.6949e-05
52 *177:136 *472:DIODE 2.16719e-05
53 *177:136 *2282:A 5.33005e-05
54 *177:136 *182:136 9.90367e-05
55 *177:136 *185:78 6.09476e-05
56 *177:136 *202:94 7.6644e-05
57 *177:157 *2271:A 0.000395772
58 *177:157 *199:10 2.84109e-05
59 *177:157 *199:74 6.05023e-05
60 *177:170 *2230:B 1.92582e-05
61 *177:170 *2230:C 2.49484e-05
62 *177:170 *186:117 6.42338e-05
63 *177:170 *192:126 0
64 *177:170 *214:106 0
65 *345:DIODE *177:157 0.000137983
66 *554:DIODE *177:12 1.52978e-05
67 *2272:B *177:8 6.46925e-05
68 *2272:B *177:12 2.09722e-05
69 *2272:B *177:84 5.4087e-05
70 *2272:B *177:95 2.66227e-05
71 *2272:B *177:104 3.43988e-06
72 *2344:D *177:23 6.81704e-05
73 *2344:RESET_B *177:23 0.000309537
74 *2352:D *566:DIODE 9.46929e-05
75 *2356:D *2356:CLK 8.55871e-05
76 *2365:D *177:126 6.42095e-05
77 *2365:D *177:136 6.05161e-06
78 *2365:RESET_B *177:104 1.85502e-05
79 *2365:RESET_B *177:124 0.000181888
80 *2370:D *177:170 0
81 *41:28 *177:170 0
82 *42:24 *177:12 0.000146918
83 *52:10 *177:31 0.000176234
84 *55:20 *177:23 9.71197e-05
85 *109:16 *177:170 0
86 *109:20 *177:170 0
87 *109:22 *177:170 0
88 *110:10 *177:170 0.000515874
89 *112:10 *177:170 0
90 *119:87 *2372:CLK 9.31011e-05
91 *119:87 *177:136 7.03185e-05
92 *119:115 *177:136 6.05161e-06
93 *141:92 *177:157 9.24234e-05
94 *141:92 *177:170 0.000155817
95 *144:16 *177:126 0.000161103
96 *144:16 *177:136 0.000267002
97 *144:16 *177:157 0.000356594
98 *144:16 *177:170 0.000158902
99 *149:32 *177:104 0.000110632
100 *150:35 *177:124 1.78353e-05
101 *154:10 *177:12 0
102 *161:10 *177:8 0.000188364
103 *161:10 *177:12 0.000732619
104 *161:10 *177:84 0.000180299
105 *161:10 *177:95 7.10552e-05
106 *161:10 *177:104 0.000155723
107 *161:10 *177:124 0.00032287
108 *161:10 *177:126 4.16984e-05
109 *161:10 *177:136 1.21258e-05
110 *170:121 *177:170 0.00053714
*RES
1 *2383:X *177:6 13.8 
2 *177:6 *177:8 2.55357 
3 *177:8 *177:12 14.0357 
4 *177:12 *553:DIODE 9.3 
5 *177:12 *177:23 10.5357 
6 *177:23 *177:31 16.7143 
7 *177:31 *572:DIODE 9.3 
8 *177:31 *2356:CLK 11.4786 
9 *177:23 *2344:CLK 9.3 
10 *177:8 *177:50 4.5 
11 *177:50 *177:52 10.8036 
12 *177:52 *597:DIODE 9.3 
13 *177:52 *2368:CLK 11.8 
14 *177:50 *177:68 6.28571 
15 *177:68 *594:DIODE 9.3 
16 *177:68 *2366:CLK 11.8 
17 *177:6 *177:84 2.55357 
18 *177:84 *566:DIODE 15.5679 
19 *177:84 *177:95 1.03571 
20 *177:95 *2352:CLK 13.8 
21 *177:95 *177:104 2.25 
22 *177:104 *177:108 8.32143 
23 *177:108 *2386:A 11.4786 
24 *177:108 *615:DIODE 9.3 
25 *177:104 *177:124 9.78571 
26 *177:124 *177:126 3 
27 *177:126 *177:136 16.6429 
28 *177:136 *604:DIODE 9.3 
29 *177:136 *2372:CLK 11.8 
30 *177:126 *2365:CLK 9.3 
31 *177:124 *177:157 10.3929 
32 *177:157 *592:DIODE 9.3 
33 *177:157 *177:170 40.3571 
34 *177:170 *600:DIODE 9.3 
35 *177:170 *2370:CLK 10.9786 
*END

*D_NET *178 0.0320272
*CONN
*I *2189:A I *D sky130_fd_sc_hd__xnor2_1
*I *608:DIODE I *D sky130_fd_sc_hd__diode_2
*I *2375:CLK I *D sky130_fd_sc_hd__dfrtp_4
*I *258:DIODE I *D sky130_fd_sc_hd__diode_2
*I *2376:CLK I *D sky130_fd_sc_hd__dfrtp_4
*I *610:DIODE I *D sky130_fd_sc_hd__diode_2
*I *2374:CLK I *D sky130_fd_sc_hd__dfrtp_4
*I *606:DIODE I *D sky130_fd_sc_hd__diode_2
*I *2373:CLK I *D sky130_fd_sc_hd__dfrtp_4
*I *605:DIODE I *D sky130_fd_sc_hd__diode_2
*I *2377:Q O *D sky130_fd_sc_hd__dfrtp_4
*CAP
1 *2189:A 0.000139615
2 *608:DIODE 3.35038e-05
3 *2375:CLK 2.22238e-05
4 *258:DIODE 6.54707e-05
5 *2376:CLK 3.65084e-05
6 *610:DIODE 0
7 *2374:CLK 0
8 *606:DIODE 9.21618e-05
9 *2373:CLK 3.37958e-05
10 *605:DIODE 0
11 *2377:Q 0.000616385
12 *178:99 5.57276e-05
13 *178:97 0.00165143
14 *178:95 0.00272206
15 *178:85 0.00129551
16 *178:74 0.00153472
17 *178:52 7.38735e-05
18 *178:48 0.00204107
19 *178:34 0.000308038
20 *178:16 0.000304831
21 *178:10 0.000632322
22 *178:8 0.00138151
23 *2189:A *206:88 0
24 *2373:CLK *219:26 9.41642e-05
25 *2376:CLK *221:14 2.79421e-05
26 *178:8 *213:24 0.00047348
27 *178:8 *214:22 0.000554083
28 *178:16 *219:26 0.000568953
29 *178:48 *2245:C 0.000232583
30 *178:48 *192:92 0.000854611
31 *178:52 *221:14 2.79421e-05
32 *178:74 *181:150 0.000167875
33 *178:74 *181:166 0.000351559
34 *178:74 *182:113 0.000545556
35 *178:74 *182:128 0.000562399
36 *178:74 *192:92 0.000646714
37 *2217:A *178:95 0.000553327
38 *2238:D *178:48 4.78647e-05
39 *2324:A *178:95 0.000136951
40 *2348:D *608:DIODE 7.15962e-05
41 *2348:D *2375:CLK 3.67142e-05
42 *2348:D *178:97 0
43 *2361:RESET_B *178:95 0.000771988
44 *2373:D *2373:CLK 5.33005e-05
45 *2374:D *178:10 6.93626e-06
46 *2374:D *178:34 5.49995e-05
47 *2374:D *178:48 7.28272e-06
48 *2374:RESET_B *178:10 2.22419e-05
49 *2374:RESET_B *178:16 0.000326231
50 *2374:RESET_B *178:34 5.33005e-05
51 *2375:RESET_B *608:DIODE 0.000174232
52 *2375:RESET_B *2375:CLK 9.90367e-05
53 *2376:D *2376:CLK 8.2607e-05
54 *2376:D *178:52 9.58181e-05
55 *2377:RESET_B *178:8 0.00013179
56 *35:22 *178:16 0.000530006
57 *36:26 *178:48 0.000125685
58 *36:26 *178:74 0.000153984
59 *47:22 *178:95 6.79915e-05
60 *82:18 *178:97 0.000725304
61 *83:10 *178:97 0.00125935
62 *89:12 *178:8 2.85234e-05
63 *100:108 *2189:A 1.59373e-05
64 *100:125 *2189:A 2.84026e-05
65 *101:24 *178:97 0.000109321
66 *103:14 *178:74 1.41225e-05
67 *106:34 *178:97 0.000655474
68 *106:108 *178:97 0.00170887
69 *106:134 *178:97 0
70 *119:8 *178:95 0.000267731
71 *122:45 *178:97 0.000389668
72 *132:18 *178:48 0.00111902
73 *134:111 *178:74 0.000304394
74 *141:58 *2189:A 9.97164e-05
75 *141:58 *178:85 0.000119738
76 *143:28 *606:DIODE 5.33005e-05
77 *143:28 *178:34 3.0426e-05
78 *145:10 *178:97 0
79 *148:14 *178:74 0.000159159
80 *148:14 *178:95 0.000431343
81 *156:65 *178:48 0.00053728
82 *156:65 *178:74 0.000141558
83 *156:71 *178:8 5.49995e-05
84 *156:91 *178:8 5.50052e-05
85 *156:91 *178:10 8.91505e-05
86 *162:20 *258:DIODE 9.83388e-05
87 *162:20 *178:74 0.00055656
88 *169:241 *178:97 0
89 *169:254 *178:97 0
90 *171:116 *178:10 4.27842e-06
91 *171:116 *178:16 0.000137327
92 *172:214 *178:95 2.78608e-05
93 *175:16 *178:8 0.000153019
94 *175:16 *178:10 5.36422e-05
95 *175:16 *178:48 0.000355063
96 *175:18 *178:8 0.000348865
97 *175:24 *178:8 0.000141941
*RES
1 *2377:Q *178:8 31.5857 
2 *178:8 *178:10 3.16071 
3 *178:10 *178:16 14.3393 
4 *178:16 *605:DIODE 9.3 
5 *178:16 *2373:CLK 10.2464 
6 *178:10 *178:34 7.41071 
7 *178:34 *606:DIODE 10.6571 
8 *178:34 *2374:CLK 9.3 
9 *178:8 *178:48 21.9821 
10 *178:48 *178:52 5.44643 
11 *178:52 *610:DIODE 9.3 
12 *178:52 *2376:CLK 10.2464 
13 *178:48 *178:74 33.3036 
14 *178:74 *258:DIODE 10.2464 
15 *178:74 *178:85 6.14286 
16 *178:85 *178:95 28.5714 
17 *178:95 *178:97 45.6607 
18 *178:97 *178:99 4.5 
19 *178:99 *2375:CLK 10.2464 
20 *178:99 *608:DIODE 11.0679 
21 *178:85 *2189:A 16.5143 
*END

*D_NET *179 0.0555092
*CONN
*I *482:DIODE I *D sky130_fd_sc_hd__diode_2
*I *2288:A1 I *D sky130_fd_sc_hd__a21o_1
*I *477:DIODE I *D sky130_fd_sc_hd__diode_2
*I *2286:A I *D sky130_fd_sc_hd__xor2_2
*I *2297:A I *D sky130_fd_sc_hd__or3_1
*I *501:DIODE I *D sky130_fd_sc_hd__diode_2
*I *498:DIODE I *D sky130_fd_sc_hd__diode_2
*I *2296:A1 I *D sky130_fd_sc_hd__o21ai_2
*I *2295:A1 I *D sky130_fd_sc_hd__a211o_1
*I *494:DIODE I *D sky130_fd_sc_hd__diode_2
*I *470:DIODE I *D sky130_fd_sc_hd__diode_2
*I *2282:A I *D sky130_fd_sc_hd__or3_1
*I *479:DIODE I *D sky130_fd_sc_hd__diode_2
*I *2287:A I *D sky130_fd_sc_hd__nand3_2
*I *476:DIODE I *D sky130_fd_sc_hd__diode_2
*I *2285:B1 I *D sky130_fd_sc_hd__a21oi_1
*I *2373:Q O *D sky130_fd_sc_hd__dfrtp_4
*CAP
1 *482:DIODE 0
2 *2288:A1 0
3 *477:DIODE 0
4 *2286:A 0.000496297
5 *2297:A 0
6 *501:DIODE 0.000141329
7 *498:DIODE 0
8 *2296:A1 0.000200877
9 *2295:A1 0.000565644
10 *494:DIODE 0.000142324
11 *470:DIODE 0.000227984
12 *2282:A 3.04135e-05
13 *479:DIODE 7.62875e-05
14 *2287:A 0
15 *476:DIODE 0
16 *2285:B1 0.000239919
17 *2373:Q 0
18 *179:194 0.00138741
19 *179:181 0.000935647
20 *179:170 0.000796786
21 *179:146 0.000395717
22 *179:142 0.00136997
23 *179:129 0.00119663
24 *179:118 0.000683552
25 *179:106 0.00198412
26 *179:100 0.00188975
27 *179:84 0.000403354
28 *179:82 0.00090379
29 *179:54 0.000864302
30 *179:32 7.62875e-05
31 *179:30 0.000950987
32 *179:14 0.000614785
33 *179:10 0.00221774
34 *179:8 0.00152836
35 *179:4 0.000911081
36 *470:DIODE *2282:B 6.91157e-05
37 *501:DIODE *187:20 0.000136958
38 *2285:B1 *2391:A 6.41179e-05
39 *2286:A *2286:B 0.000219402
40 *2286:A *180:113 0.000136958
41 *2295:A1 *2295:B1 5.7661e-06
42 *2295:A1 *182:46 2.10297e-05
43 *2295:A1 *218:14 5.19842e-06
44 *2296:A1 *201:16 0.000267731
45 *179:8 *219:26 7.40432e-05
46 *179:14 *2391:A 0.000946234
47 *179:30 *200:78 8.16036e-05
48 *179:54 *2282:B 0.000150618
49 *179:54 *180:141 9.55881e-05
50 *179:54 *180:156 6.86693e-05
51 *179:54 *185:20 0.00135465
52 *179:54 *200:78 0.000128941
53 *179:82 *483:DIODE 0.000184403
54 *179:82 *203:12 0.000443618
55 *179:82 *203:20 0.000341614
56 *179:84 *483:DIODE 0.00013017
57 *179:84 *180:20 5.6647e-05
58 *179:84 *203:20 0.000173587
59 *179:100 *279:DIODE 0.000315812
60 *179:100 *2199:B1 0.000143891
61 *179:100 *2288:B1 0.000184503
62 *179:100 *180:20 5.66971e-05
63 *179:100 *194:55 4.77002e-05
64 *179:100 *194:61 0.000100082
65 *179:100 *203:20 0.000546149
66 *179:100 *205:14 0
67 *179:100 *208:40 3.29297e-05
68 *179:106 *194:73 1.12713e-05
69 *179:106 *194:75 0.00194387
70 *179:106 *205:28 0.0001587
71 *179:118 *188:42 0.000195856
72 *179:118 *189:70 0.00012249
73 *179:118 *193:10 3.59945e-05
74 *179:129 *188:42 0.000188526
75 *179:142 *188:42 0.00131782
76 *179:170 *187:34 0.000227984
77 *179:170 *187:66 2.23145e-05
78 *179:170 *192:24 0.000228707
79 *179:181 *187:66 0.00014852
80 *179:181 *192:24 0.000139954
81 *179:194 *180:113 0.000227532
82 *179:194 *186:60 0.00219809
83 *179:194 *187:66 0.000126409
84 *179:194 *192:24 0.000375278
85 *179:194 *192:140 0
86 *475:DIODE *2285:B1 0.000140933
87 *499:DIODE *179:146 5.49544e-05
88 *508:DIODE *179:82 3.92757e-05
89 *528:DIODE *179:106 0.000143633
90 *2227:A *2295:A1 8.52926e-05
91 *2227:C *2295:A1 0.000212061
92 *2260:A *179:14 0.000142004
93 *2276:A *179:118 0.000105502
94 *2357:RESET_B *179:170 6.57914e-05
95 *2360:RESET_B *179:106 0.000116447
96 *2361:D *179:194 0.00127441
97 *2365:D *179:54 0.000109538
98 *2366:D *179:30 0.000219758
99 *17:22 *179:146 0.00034694
100 *26:10 *179:170 3.55407e-05
101 *26:10 *179:194 2.14474e-05
102 *31:24 *179:10 0.00053958
103 *31:24 *179:30 0.000194161
104 *34:8 *179:10 0.0037631
105 *34:8 *179:82 0
106 *40:18 *179:106 0.00134467
107 *41:24 *179:10 0
108 *47:12 *179:10 0
109 *51:22 *179:106 0.000916089
110 *52:10 *179:10 0.00131204
111 *52:10 *179:30 0.000381804
112 *52:10 *179:54 0.000132452
113 *54:12 *179:82 0.000251942
114 *57:12 *179:10 1.17968e-05
115 *66:24 *179:10 0.000142843
116 *66:24 *179:82 2.06112e-05
117 *70:8 *179:106 0.000573116
118 *71:22 *179:106 0.000130221
119 *100:46 *179:142 0.000146998
120 *100:46 *179:170 0.000188761
121 *103:34 *470:DIODE 6.30982e-05
122 *103:34 *179:54 7.79781e-06
123 *106:68 *179:10 0
124 *106:88 *179:30 0
125 *107:8 *179:106 0.000230568
126 *122:14 *2295:A1 0.000359377
127 *122:35 *494:DIODE 4.45572e-05
128 *127:20 *179:142 0.000377942
129 *127:20 *179:194 0.000260864
130 *134:224 *179:170 0.000136958
131 *135:16 *179:82 0.000322784
132 *135:16 *179:100 0.00052196
133 *136:16 *179:170 0.00076081
134 *146:28 *501:DIODE 2.6269e-05
135 *147:10 *179:194 0.000204675
136 *152:20 *479:DIODE 7.02611e-05
137 *155:14 *470:DIODE 0.000158553
138 *156:91 *179:100 0.000138415
139 *158:24 *179:118 9.95963e-05
140 *158:24 *179:129 0.000102626
141 *158:24 *179:142 0.000836446
142 *158:24 *179:170 0.000373456
143 *163:14 *179:54 0.00023817
144 *167:44 *2296:A1 4.3734e-05
145 *167:44 *179:146 1.6528e-05
146 *169:34 *179:170 1.69115e-05
147 *169:125 *179:8 0.000142427
148 *170:12 *179:82 0
149 *171:16 *179:170 0.000162421
150 *171:16 *179:194 4.12435e-05
151 *171:92 *179:106 0.000873089
152 *177:31 *179:10 0.000175519
153 *177:136 *2282:A 5.33005e-05
*RES
1 *2373:Q *179:4 9.3 
2 *179:4 *179:8 5.85714 
3 *179:8 *179:10 49.3036 
4 *179:10 *179:14 13.6607 
5 *179:14 *2285:B1 13.4429 
6 *179:14 *476:DIODE 9.3 
7 *179:10 *179:30 9.53571 
8 *179:30 *179:32 4.5 
9 *179:32 *2287:A 9.3 
10 *179:32 *479:DIODE 10.6571 
11 *179:30 *179:54 27.375 
12 *179:54 *2282:A 14.3357 
13 *179:54 *470:DIODE 17.9071 
14 *179:4 *179:82 31.2143 
15 *179:82 *179:84 1.76786 
16 *179:84 *179:100 23.5714 
17 *179:100 *179:106 45.8571 
18 *179:106 *179:118 21.9286 
19 *179:118 *494:DIODE 15.5679 
20 *179:118 *179:129 2.55357 
21 *179:129 *2295:A1 22.05 
22 *179:129 *179:142 20.7679 
23 *179:142 *179:146 8.32143 
24 *179:146 *2296:A1 13.1393 
25 *179:146 *498:DIODE 9.3 
26 *179:142 *179:170 29.1429 
27 *179:170 *501:DIODE 15.5679 
28 *179:170 *179:181 1.94643 
29 *179:181 *2297:A 13.8 
30 *179:181 *179:194 37.4643 
31 *179:194 *2286:A 16.8536 
32 *179:194 *477:DIODE 9.3 
33 *179:84 *2288:A1 9.3 
34 *179:82 *482:DIODE 9.3 
*END

*D_NET *180 0.0346752
*CONN
*I *504:DIODE I *D sky130_fd_sc_hd__diode_2
*I *2287:B I *D sky130_fd_sc_hd__nand3_2
*I *480:DIODE I *D sky130_fd_sc_hd__diode_2
*I *471:DIODE I *D sky130_fd_sc_hd__diode_2
*I *2282:B I *D sky130_fd_sc_hd__or3_1
*I *2286:B I *D sky130_fd_sc_hd__xor2_2
*I *478:DIODE I *D sky130_fd_sc_hd__diode_2
*I *2299:A1 I *D sky130_fd_sc_hd__o31ai_2
*I *2294:A I *D sky130_fd_sc_hd__inv_2
*I *493:DIODE I *D sky130_fd_sc_hd__diode_2
*I *483:DIODE I *D sky130_fd_sc_hd__diode_2
*I *2288:A2 I *D sky130_fd_sc_hd__a21o_1
*I *2374:Q O *D sky130_fd_sc_hd__dfrtp_4
*CAP
1 *504:DIODE 0
2 *2287:B 0.000203368
3 *480:DIODE 0
4 *471:DIODE 0
5 *2282:B 8.16062e-05
6 *2286:B 0.000197379
7 *478:DIODE 0
8 *2299:A1 0.000343763
9 *2294:A 2.99504e-05
10 *493:DIODE 0
11 *483:DIODE 4.75257e-05
12 *2288:A2 0
13 *2374:Q 0
14 *180:156 0.00071279
15 *180:141 0.000561879
16 *180:128 0.000186426
17 *180:113 0.000762784
18 *180:111 0.0029488
19 *180:107 0.00313779
20 *180:86 0.00113052
21 *180:82 0.000205149
22 *180:67 0.000206345
23 *180:58 0.000696647
24 *180:52 0.00188763
25 *180:20 0.00118965
26 *180:6 0.00238908
27 *2287:B *200:78 0.000153054
28 *2294:A *413:DIODE 9.41642e-05
29 *2299:A1 *506:DIODE 9.41642e-05
30 *2299:A1 *203:78 0.00022266
31 *2299:A1 *208:6 0.000227838
32 *180:20 *214:10 0.000266686
33 *180:52 *183:33 0.000165239
34 *180:52 *183:37 0.000372651
35 *180:52 *191:98 1.95304e-05
36 *180:52 *194:41 0.000190127
37 *180:52 *194:47 0.000371128
38 *180:58 *190:118 9.77956e-05
39 *180:58 *194:20 0.000410946
40 *180:58 *196:93 0.000192159
41 *180:58 *204:76 0.000298521
42 *180:58 *205:58 0.000515469
43 *180:58 *221:10 4.28535e-05
44 *180:67 *205:58 0.000173083
45 *180:82 *205:58 0.000215448
46 *180:86 *182:128 8.03134e-05
47 *180:107 *182:128 0.0012797
48 *180:107 *185:14 0.000105105
49 *180:107 *205:68 0
50 *180:111 *185:20 5.06983e-05
51 *180:128 *185:20 4.00679e-05
52 *180:141 *185:20 1.34631e-05
53 *180:156 *216:12 0.000327608
54 *414:DIODE *2294:A 9.41642e-05
55 *470:DIODE *2282:B 6.91157e-05
56 *520:DIODE *180:111 0.000135028
57 *2281:B *2299:A1 0.000136958
58 *2281:B *180:82 0.000136958
59 *2286:A *2286:B 0.000219402
60 *2286:A *180:113 0.000136958
61 *2352:D *2287:B 4.48647e-05
62 *2352:D *180:156 0.000361435
63 *2353:D *2299:A1 0.000213669
64 *2365:D *2282:B 8.2958e-06
65 *2373:D *180:20 7.6644e-05
66 *2383:A *180:107 1.03926e-05
67 *2385:A *180:111 0.000154345
68 *36:30 *2282:B 1.76135e-05
69 *42:24 *180:20 8.23597e-06
70 *53:12 *180:20 0.000118944
71 *55:20 *2299:A1 0.000678072
72 *71:16 *180:20 0.000177256
73 *71:16 *180:52 1.00332e-05
74 *75:32 *180:52 1.1192e-05
75 *76:8 *180:156 0.000177821
76 *80:22 *180:20 0
77 *106:88 *2287:B 0.000153054
78 *115:70 *180:82 0.000135028
79 *119:24 *2299:A1 0.000210368
80 *130:46 *180:58 0.000160667
81 *130:52 *180:58 0.000594711
82 *134:105 *180:58 0.000286062
83 *134:105 *180:67 0.000162118
84 *134:105 *180:82 0.00020549
85 *135:16 *483:DIODE 0.000314572
86 *135:16 *180:20 9.84229e-05
87 *143:28 *180:52 0.000626855
88 *151:121 *2287:B 5.33065e-05
89 *155:14 *2282:B 0.000270243
90 *156:38 *180:86 0.000166503
91 *156:38 *180:107 0.000510741
92 *161:10 *180:156 0.000326028
93 *163:14 *180:111 0.000844476
94 *163:14 *180:128 0.000124521
95 *163:14 *180:141 0.000215276
96 *163:14 *180:156 0.000123617
97 *163:24 *180:111 0.000523448
98 *169:22 *180:111 0.000596929
99 *169:24 *180:111 1.24368e-05
100 *169:24 *180:113 0.000113142
101 *169:102 *180:20 2.90582e-05
102 *169:102 *180:52 2.81499e-05
103 *169:108 *180:20 2.45152e-05
104 *171:8 *180:113 0.000522439
105 *171:252 *180:111 0.000312653
106 *172:10 *180:52 2.31127e-05
107 *175:90 *180:20 0
108 *179:54 *2282:B 0.000150618
109 *179:54 *180:141 9.55881e-05
110 *179:54 *180:156 6.86693e-05
111 *179:82 *483:DIODE 0.000184403
112 *179:84 *483:DIODE 0.00013017
113 *179:84 *180:20 5.6647e-05
114 *179:100 *180:20 5.66971e-05
115 *179:194 *180:113 0.000227532
*RES
1 *2374:Q *180:6 13.8 
2 *180:6 *180:20 26.4286 
3 *180:20 *2288:A2 9.3 
4 *180:20 *483:DIODE 12.3 
5 *180:6 *180:52 34.7193 
6 *180:52 *180:58 20.9732 
7 *180:58 *493:DIODE 13.8 
8 *180:58 *180:67 2.25 
9 *180:67 *2294:A 14.7464 
10 *180:67 *180:82 8.71429 
11 *180:82 *180:86 6.75 
12 *180:86 *2299:A1 33.7107 
13 *180:86 *180:107 23.75 
14 *180:107 *180:111 43.6786 
15 *180:111 *180:113 11.2143 
16 *180:113 *478:DIODE 9.3 
17 *180:113 *2286:B 4.08036 
18 *180:107 *180:128 1.35714 
19 *180:128 *2282:B 21.7643 
20 *180:128 *180:141 2.17857 
21 *180:141 *471:DIODE 9.3 
22 *180:141 *180:156 21.4286 
23 *180:156 *480:DIODE 9.3 
24 *180:156 *2287:B 22.8357 
25 *180:82 *504:DIODE 9.3 
*END

*D_NET *181 0.0571869
*CONN
*I *481:DIODE I *D sky130_fd_sc_hd__diode_2
*I *2287:C I *D sky130_fd_sc_hd__nand3_2
*I *2285:A1 I *D sky130_fd_sc_hd__a21oi_1
*I *474:DIODE I *D sky130_fd_sc_hd__diode_2
*I *2299:A3 I *D sky130_fd_sc_hd__o31ai_2
*I *506:DIODE I *D sky130_fd_sc_hd__diode_2
*I *2297:C I *D sky130_fd_sc_hd__or3_1
*I *503:DIODE I *D sky130_fd_sc_hd__diode_2
*I *2292:A2 I *D sky130_fd_sc_hd__o21ai_4
*I *490:DIODE I *D sky130_fd_sc_hd__diode_2
*I *484:DIODE I *D sky130_fd_sc_hd__diode_2
*I *2288:B1 I *D sky130_fd_sc_hd__a21o_1
*I *497:DIODE I *D sky130_fd_sc_hd__diode_2
*I *2295:C1 I *D sky130_fd_sc_hd__a211o_1
*I *2375:Q O *D sky130_fd_sc_hd__dfrtp_4
*CAP
1 *481:DIODE 0
2 *2287:C 8.21902e-05
3 *2285:A1 0
4 *474:DIODE 4.36704e-05
5 *2299:A3 0
6 *506:DIODE 0.000218665
7 *2297:C 0.000383443
8 *503:DIODE 0.000183303
9 *2292:A2 4.53911e-05
10 *490:DIODE 3.26257e-05
11 *484:DIODE 0
12 *2288:B1 8.28338e-05
13 *497:DIODE 0
14 *2295:C1 0.000321349
15 *2375:Q 3.09205e-05
16 *181:194 0.000996396
17 *181:177 0.000963176
18 *181:166 0.000248027
19 *181:150 0.000451107
20 *181:144 0.000387828
21 *181:142 0.00204721
22 *181:118 0.000919571
23 *181:98 7.80168e-05
24 *181:78 0.00129115
25 *181:46 0.00138104
26 *181:32 0.00259612
27 *181:30 0.000515613
28 *181:22 0.00129864
29 *181:12 0.00174161
30 *181:10 0.00422544
31 *181:8 0.00193151
32 *490:DIODE *182:36 1.98839e-05
33 *490:DIODE *182:46 5.33005e-05
34 *490:DIODE *219:24 9.41642e-05
35 *503:DIODE *182:80 0.000109448
36 *506:DIODE *2299:A2 9.60875e-05
37 *2288:B1 *214:10 3.51314e-05
38 *2292:A2 *182:36 7.17235e-05
39 *2292:A2 *219:16 0
40 *2292:A2 *219:24 0.000142856
41 *2295:C1 *2295:B1 0.000185118
42 *2295:C1 *218:14 7.54868e-05
43 *2297:C *2297:B 0.000109279
44 *2297:C *182:80 0.000385432
45 *2297:C *213:58 7.80059e-05
46 *181:10 *185:84 0.00137393
47 *181:22 *182:80 0.000464824
48 *181:22 *195:42 9.58181e-05
49 *181:22 *209:22 0.00026844
50 *181:22 *218:76 0.000150611
51 *181:46 *2262:A 0.000141734
52 *181:46 *196:44 0.000354511
53 *181:46 *198:28 2.59355e-05
54 *181:46 *198:30 0.000116518
55 *181:46 *198:44 0.000418712
56 *181:78 *191:98 2.14658e-05
57 *181:78 *198:28 0.000662725
58 *181:78 *199:142 0.00146012
59 *181:78 *214:10 0.000127405
60 *181:118 *182:80 0.000206794
61 *181:142 *320:DIODE 5.65955e-05
62 *181:142 *2218:A 0.000216304
63 *181:142 *203:78 0.000206274
64 *181:142 *206:56 0.00143175
65 *181:142 *209:22 8.57023e-05
66 *181:142 *209:24 0.00012835
67 *181:166 *182:128 3.93724e-05
68 *181:177 *182:128 2.46318e-05
69 *181:194 *2263:A 3.19337e-05
70 *378:DIODE *181:78 0.000202083
71 *2220:B *2295:C1 0.0002698
72 *2220:B *181:46 0.000349433
73 *2235:B1 *181:10 8.92221e-05
74 *2238:D *181:150 0.000180501
75 *2263:B *181:194 2.84109e-05
76 *2263:C *181:194 8.43535e-06
77 *2281:B *506:DIODE 6.9024e-05
78 *2281:B *181:150 0.000473747
79 *2299:A1 *506:DIODE 9.41642e-05
80 *2299:B1 *506:DIODE 5.63843e-05
81 *2299:B1 *181:150 6.42095e-05
82 *2300:A *181:10 4.43299e-05
83 *2353:RESET_B *181:142 5.33005e-05
84 *2375:D *181:8 2.89114e-05
85 *2386:A *181:194 6.05161e-06
86 *18:10 *2297:C 7.80059e-05
87 *18:10 *181:10 0
88 *23:16 *474:DIODE 0.000181796
89 *26:10 *181:46 0.000146474
90 *28:28 *181:10 0.00012847
91 *36:26 *181:166 0.000107263
92 *47:22 *474:DIODE 0.000178847
93 *55:20 *181:142 0.00218879
94 *70:12 *181:22 0.00183072
95 *75:32 *181:22 9.90115e-06
96 *90:18 *181:10 0.000368048
97 *90:18 *181:12 0.000146284
98 *99:27 *181:22 0.00187274
99 *103:14 *181:150 0.000167875
100 *103:14 *181:166 0.000453104
101 *103:14 *181:177 0.000100831
102 *103:14 *181:194 0.000274613
103 *103:34 *181:194 0.000115598
104 *105:12 *181:30 0.000157252
105 *105:12 *181:32 0.000555071
106 *105:12 *181:46 5.59013e-05
107 *106:30 *2297:C 0.000195558
108 *106:30 *181:22 0.000985352
109 *106:34 *181:22 3.04901e-05
110 *119:42 *181:32 0
111 *122:14 *2295:C1 0.000186765
112 *126:22 *181:46 0.00244537
113 *126:22 *181:78 0.00250181
114 *131:44 *181:10 0.00261682
115 *131:44 *181:12 0.000844139
116 *131:44 *181:22 0.00010237
117 *135:16 *2288:B1 0.000182811
118 *135:16 *181:78 0.000393936
119 *141:77 *181:194 1.51489e-05
120 *143:20 *181:30 0.000136951
121 *150:10 *181:194 7.1959e-05
122 *152:20 *2287:C 4.01264e-05
123 *152:20 *181:194 0.000307722
124 *155:14 *181:177 4.46186e-06
125 *155:14 *181:194 0.000414201
126 *158:24 *181:46 0.000148189
127 *163:14 *2287:C 5.49489e-05
128 *164:18 *2288:B1 1.00887e-05
129 *164:18 *181:78 0.000101771
130 *168:12 *2297:C 6.96806e-05
131 *169:202 *181:10 0
132 *169:228 *181:10 0
133 *172:88 *181:10 0.000284872
134 *172:88 *181:12 0.000836695
135 *172:88 *181:22 0.00010403
136 *177:108 *181:194 0.000197904
137 *178:74 *181:150 0.000167875
138 *178:74 *181:166 0.000351559
139 *179:100 *2288:B1 0.000184503
*RES
1 *2375:Q *181:8 14.3357 
2 *181:8 *181:10 51.125 
3 *181:10 *181:12 11.0536 
4 *181:12 *181:22 48.5714 
5 *181:22 *181:30 12.6071 
6 *181:30 *181:32 7.41071 
7 *181:32 *181:46 43.125 
8 *181:46 *2295:C1 24.6036 
9 *181:46 *497:DIODE 9.3 
10 *181:32 *181:78 47.3214 
11 *181:78 *2288:B1 16.6036 
12 *181:78 *484:DIODE 13.8 
13 *181:30 *181:98 4.5 
14 *181:98 *490:DIODE 10.2464 
15 *181:98 *2292:A2 11.0857 
16 *181:12 *181:118 8.73214 
17 *181:118 *503:DIODE 11.4786 
18 *181:118 *2297:C 27.2643 
19 *181:10 *181:142 45.6964 
20 *181:142 *181:144 4.5 
21 *181:144 *181:150 11.3929 
22 *181:150 *506:DIODE 13.1393 
23 *181:150 *2299:A3 9.3 
24 *181:144 *181:166 5.89286 
25 *181:166 *474:DIODE 15.5679 
26 *181:166 *181:177 1.33929 
27 *181:177 *2285:A1 13.8 
28 *181:177 *181:194 25.2679 
29 *181:194 *2287:C 11.0857 
30 *181:194 *481:DIODE 9.3 
*END

*D_NET *182 0.0461925
*CONN
*I *472:DIODE I *D sky130_fd_sc_hd__diode_2
*I *2282:C I *D sky130_fd_sc_hd__or3_1
*I *487:DIODE I *D sky130_fd_sc_hd__diode_2
*I *2291:A I *D sky130_fd_sc_hd__xnor2_1
*I *505:DIODE I *D sky130_fd_sc_hd__diode_2
*I *2299:A2 I *D sky130_fd_sc_hd__o31ai_2
*I *2297:B I *D sky130_fd_sc_hd__or3_1
*I *502:DIODE I *D sky130_fd_sc_hd__diode_2
*I *489:DIODE I *D sky130_fd_sc_hd__diode_2
*I *2292:A1 I *D sky130_fd_sc_hd__o21ai_4
*I *496:DIODE I *D sky130_fd_sc_hd__diode_2
*I *2295:B1 I *D sky130_fd_sc_hd__a211o_1
*I *2376:Q O *D sky130_fd_sc_hd__dfrtp_4
*CAP
1 *472:DIODE 0.000345352
2 *2282:C 0
3 *487:DIODE 0
4 *2291:A 0.000157157
5 *505:DIODE 4.36033e-05
6 *2299:A2 0.00030365
7 *2297:B 0.000320762
8 *502:DIODE 0
9 *489:DIODE 7.52338e-05
10 *2292:A1 0
11 *496:DIODE 0
12 *2295:B1 0.000133535
13 *2376:Q 0.000632004
14 *182:136 0.00173641
15 *182:130 0.00157925
16 *182:128 0.00119966
17 *182:113 0.00109676
18 *182:80 0.00154792
19 *182:46 0.00164905
20 *182:36 0.00183515
21 *182:32 0.00149624
22 *182:26 0.00305736
23 *182:18 0.00131365
24 *182:14 0.00111202
25 *472:DIODE *185:78 0
26 *472:DIODE *202:94 7.83659e-05
27 *472:DIODE *202:96 0.000392026
28 *489:DIODE *491:DIODE 2.59355e-05
29 *489:DIODE *2292:B1 9.41642e-05
30 *489:DIODE *219:24 3.30352e-05
31 *2295:B1 *218:14 0.00014592
32 *2299:A2 *203:74 0.000259225
33 *2299:A2 *208:32 0.000575128
34 *182:14 *204:57 4.49306e-05
35 *182:14 *204:63 0.000389734
36 *182:14 *221:14 0.000344983
37 *182:18 *2277:A 2.59355e-05
38 *182:18 *203:74 3.52519e-05
39 *182:18 *204:63 0.000293946
40 *182:26 *2180:D 0.000138881
41 *182:26 *187:20 0.00092091
42 *182:26 *191:82 5.29529e-05
43 *182:26 *191:90 6.87839e-06
44 *182:26 *195:90 0.000315061
45 *182:26 *208:32 0.000352832
46 *182:32 *198:28 0.000286773
47 *182:32 *198:68 0.00195129
48 *182:36 *2292:B1 0.0002302
49 *182:36 *219:16 3.99614e-06
50 *182:36 *219:24 8.28904e-05
51 *182:46 *425:DIODE 0.000143375
52 *182:46 *195:72 4.33899e-05
53 *182:46 *198:28 8.50152e-05
54 *182:46 *219:24 1.98839e-05
55 *182:80 *195:42 9.41642e-05
56 *182:80 *198:68 0.000214166
57 *182:128 *185:14 0
58 *182:128 *185:78 0
59 *182:136 *456:DIODE 0.000136476
60 *182:136 *202:94 0.0016764
61 *182:136 *203:103 4.58194e-05
62 *490:DIODE *182:36 1.98839e-05
63 *490:DIODE *182:46 5.33005e-05
64 *503:DIODE *182:80 0.000109448
65 *506:DIODE *2299:A2 9.60875e-05
66 *2188:D *182:46 0.00012401
67 *2200:A_N *182:80 4.00679e-05
68 *2200:B *182:80 0.000389736
69 *2227:A *2295:B1 2.84109e-05
70 *2227:A *182:46 1.59373e-05
71 *2227:B *182:46 5.68722e-05
72 *2227:C *182:46 8.7487e-05
73 *2238:D *505:DIODE 5.33005e-05
74 *2238:D *182:113 0.000256468
75 *2238:D *182:128 1.01075e-05
76 *2275:B *182:136 2.47724e-05
77 *2281:B *2299:A2 9.41642e-05
78 *2291:B *2291:A 0.000311183
79 *2291:B *182:136 0.000169359
80 *2292:A2 *182:36 7.17235e-05
81 *2295:A1 *2295:B1 5.7661e-06
82 *2295:A1 *182:46 2.10297e-05
83 *2295:C1 *2295:B1 0.000185118
84 *2297:C *2297:B 0.000109279
85 *2297:C *182:80 0.000385432
86 *2376:RESET_B *182:14 2.73599e-05
87 *2376:RESET_B *182:80 5.33005e-05
88 *19:8 *2291:A 0.000223558
89 *19:8 *182:136 0.00174963
90 *36:26 *182:113 0.000133769
91 *36:26 *182:128 0.000124022
92 *56:18 *182:80 1.06305e-05
93 *70:12 *182:46 0.000543451
94 *87:10 *182:32 0.000681194
95 *87:10 *182:80 0.000183752
96 *92:8 *2299:A2 3.37033e-05
97 *92:8 *182:26 8.4766e-05
98 *96:20 *182:32 0.000114714
99 *99:27 *182:46 0.000266566
100 *106:30 *182:80 0.000140725
101 *108:20 *182:80 9.30482e-05
102 *122:14 *2295:B1 6.92966e-05
103 *122:35 *182:46 6.57616e-05
104 *126:22 *182:46 0.0024054
105 *134:103 *182:18 0.000135028
106 *144:16 *182:136 6.57914e-05
107 *146:28 *182:26 0.00105765
108 *149:8 *182:46 5.71472e-05
109 *155:14 *472:DIODE 0.000146474
110 *155:14 *182:128 0.00116497
111 *156:38 *182:128 1.55051e-05
112 *156:65 *182:113 5.36422e-05
113 *159:16 *182:18 0.000303698
114 *163:24 *182:136 0.000628829
115 *166:10 *182:32 0
116 *169:44 *182:32 0
117 *169:160 *182:14 4.48698e-05
118 *174:16 *182:32 0.000171068
119 *174:126 *182:32 0.000125216
120 *177:136 *472:DIODE 2.16719e-05
121 *177:136 *182:136 9.90367e-05
122 *178:74 *182:113 0.000545556
123 *178:74 *182:128 0.000562399
124 *180:86 *182:128 8.03134e-05
125 *180:107 *182:128 0.0012797
126 *181:22 *182:80 0.000464824
127 *181:118 *182:80 0.000206794
128 *181:166 *182:128 3.93724e-05
129 *181:177 *182:128 2.46318e-05
*RES
1 *2376:Q *182:14 31.175 
2 *182:14 *182:18 10.7857 
3 *182:18 *182:26 31.4643 
4 *182:26 *182:32 34.5 
5 *182:32 *182:36 6.71429 
6 *182:36 *182:46 43.875 
7 *182:46 *2295:B1 13.5679 
8 *182:46 *496:DIODE 9.3 
9 *182:36 *2292:A1 9.3 
10 *182:32 *489:DIODE 11.0679 
11 *182:26 *182:80 31.7143 
12 *182:80 *502:DIODE 9.3 
13 *182:80 *2297:B 13.4429 
14 *182:18 *2299:A2 23.1214 
15 *182:14 *182:113 11.6071 
16 *182:113 *505:DIODE 14.3357 
17 *182:113 *182:128 25.6786 
18 *182:128 *182:130 4.5 
19 *182:130 *182:136 41.2321 
20 *182:136 *2291:A 13.4429 
21 *182:136 *487:DIODE 9.3 
22 *182:130 *2282:C 9.3 
23 *182:128 *472:DIODE 19.5679 
*END

*D_NET *183 0.034616
*CONN
*I *260:DIODE I *D sky130_fd_sc_hd__diode_2
*I *2190:A_N I *D sky130_fd_sc_hd__and2b_1
*I *265:DIODE I *D sky130_fd_sc_hd__diode_2
*I *2192:A I *D sky130_fd_sc_hd__or2_1
*I *263:DIODE I *D sky130_fd_sc_hd__diode_2
*I *2199:A1 I *D sky130_fd_sc_hd__a31o_1
*I *276:DIODE I *D sky130_fd_sc_hd__diode_2
*I *272:DIODE I *D sky130_fd_sc_hd__diode_2
*I *2197:A I *D sky130_fd_sc_hd__and4_1
*I *223:DIODE I *D sky130_fd_sc_hd__diode_2
*I *2178:B I *D sky130_fd_sc_hd__or4b_2
*I *2193:A I *D sky130_fd_sc_hd__nand2_2
*I *2341:Q O *D sky130_fd_sc_hd__dfrtp_4
*CAP
1 *260:DIODE 4.92457e-05
2 *2190:A_N 0
3 *265:DIODE 0.000106125
4 *2192:A 0
5 *263:DIODE 0.000129886
6 *2199:A1 0
7 *276:DIODE 0.000202657
8 *272:DIODE 0
9 *2197:A 0
10 *223:DIODE 6.77068e-05
11 *2178:B 0.00017547
12 *2193:A 0.000235405
13 *2341:Q 0
14 *183:152 4.92457e-05
15 *183:150 0.00233945
16 *183:125 0.000160271
17 *183:101 0.00042473
18 *183:67 0.00151819
19 *183:57 0.0014123
20 *183:51 0.00177826
21 *183:43 0.00204854
22 *183:37 0.000873442
23 *183:33 0.000834851
24 *183:12 0.000716416
25 *183:6 0.0027493
26 *263:DIODE *2192:B 1.82029e-05
27 *276:DIODE *194:73 9.41642e-05
28 *276:DIODE *205:22 0.000332626
29 *276:DIODE *205:28 5.33005e-05
30 *2178:B *2178:C 0.000272055
31 *2193:A *190:44 5.48248e-05
32 *183:12 *2245:A 1.78874e-05
33 *183:12 *196:14 0.000146644
34 *183:33 *191:98 0.000156081
35 *183:37 *191:98 0.00157742
36 *183:37 *194:47 0.000754174
37 *183:37 *208:38 0
38 *183:43 *2192:B 3.11088e-05
39 *183:43 *2241:A1 1.33343e-05
40 *183:51 *379:DIODE 0.000227532
41 *183:51 *2241:A1 7.6644e-05
42 *183:51 *190:88 2.34204e-05
43 *183:51 *208:38 2.14378e-05
44 *183:67 *2178:C 0.000279977
45 *183:67 *194:75 0.00262227
46 *183:67 *194:95 7.31107e-05
47 *183:101 *2199:B1 0.000189817
48 *183:101 *194:61 0.000259394
49 *183:101 *194:73 1.00887e-05
50 *183:101 *208:38 0.000159349
51 *183:101 *208:40 4.50762e-05
52 *183:125 *2192:B 1.52131e-05
53 *183:150 *2245:A 6.59765e-05
54 *183:150 *192:92 0.000188875
55 *183:150 *196:14 0.000258
56 *183:150 *196:70 0.000635589
57 *183:150 *203:66 0.000265025
58 *183:150 *216:12 0.00233703
59 *458:DIODE *223:DIODE 0
60 *580:DIODE *183:67 5.50052e-05
61 *2341:RESET_B *183:12 1.94945e-05
62 *2381:A *2193:A 9.41642e-05
63 *16:8 *183:12 2.99929e-05
64 *16:8 *183:150 0.000627662
65 *17:28 *265:DIODE 0.000136727
66 *20:12 *2193:A 5.31101e-05
67 *34:12 *276:DIODE 0.000276211
68 *40:18 *183:67 0.000204274
69 *42:24 *183:150 0.000452535
70 *51:22 *276:DIODE 4.78281e-05
71 *100:149 *260:DIODE 0.000141891
72 *102:8 *263:DIODE 0.000136733
73 *103:8 *2193:A 0.00014886
74 *103:8 *183:12 0.000411592
75 *103:14 *183:150 0.000148302
76 *103:34 *183:150 0.000878662
77 *107:10 *183:101 0
78 *119:42 *183:57 0.000136452
79 *119:42 *183:67 9.15842e-06
80 *126:22 *183:51 0.000705317
81 *126:22 *183:57 3.14163e-05
82 *129:39 *183:150 0
83 *143:20 *183:37 0.000392545
84 *150:35 *183:150 0
85 *151:92 *183:12 9.00645e-05
86 *151:92 *183:51 0
87 *151:92 *183:101 0
88 *161:10 *183:150 0.00011495
89 *162:8 *183:57 0.000145477
90 *162:8 *183:67 0.000125542
91 *164:18 *263:DIODE 3.76935e-05
92 *164:18 *183:43 9.0491e-05
93 *169:160 *183:150 0
94 *174:41 *183:67 0.000226279
95 *174:54 *183:67 0.000962548
96 *180:52 *183:33 0.000165239
97 *180:52 *183:37 0.000372651
*RES
1 *2341:Q *183:6 13.8 
2 *183:6 *183:12 12.3214 
3 *183:12 *2193:A 22.175 
4 *183:12 *183:33 6.75 
5 *183:33 *183:37 26.7857 
6 *183:37 *183:43 7.92857 
7 *183:43 *183:51 27.3393 
8 *183:51 *183:57 7.39286 
9 *183:57 *183:67 37.9821 
10 *183:67 *2178:B 11.8893 
11 *183:67 *223:DIODE 19.3357 
12 *183:57 *2197:A 13.8 
13 *183:51 *272:DIODE 9.3 
14 *183:43 *183:101 9.78571 
15 *183:101 *276:DIODE 24.3179 
16 *183:101 *2199:A1 9.3 
17 *183:37 *183:125 0.535714 
18 *183:125 *263:DIODE 11.9071 
19 *183:125 *2192:A 9.3 
20 *183:33 *265:DIODE 15.1571 
21 *183:6 *183:150 62.9643 
22 *183:150 *183:152 4.5 
23 *183:152 *2190:A_N 9.3 
24 *183:152 *260:DIODE 10.6571 
*END

*D_NET *184 0.0488507
*CONN
*I *2230:A I *D sky130_fd_sc_hd__and4_1
*I *2226:A I *D sky130_fd_sc_hd__nand3_2
*I *339:DIODE I *D sky130_fd_sc_hd__diode_2
*I *348:DIODE I *D sky130_fd_sc_hd__diode_2
*I *2225:A1 I *D sky130_fd_sc_hd__a21o_1
*I *336:DIODE I *D sky130_fd_sc_hd__diode_2
*I *334:DIODE I *D sky130_fd_sc_hd__diode_2
*I *2224:A I *D sky130_fd_sc_hd__xor2_2
*I *252:DIODE I *D sky130_fd_sc_hd__diode_2
*I *2187:A I *D sky130_fd_sc_hd__or4b_2
*I *2231:A I *D sky130_fd_sc_hd__and4_1
*I *352:DIODE I *D sky130_fd_sc_hd__diode_2
*I *2351:Q O *D sky130_fd_sc_hd__dfrtp_4
*CAP
1 *2230:A 0
2 *2226:A 8.86245e-05
3 *339:DIODE 0
4 *348:DIODE 0
5 *2225:A1 7.79361e-05
6 *336:DIODE 0
7 *334:DIODE 0.000559043
8 *2224:A 0.000275753
9 *252:DIODE 0
10 *2187:A 0.000269229
11 *2231:A 0
12 *352:DIODE 2.44599e-05
13 *2351:Q 0
14 *184:161 0.000739006
15 *184:155 0.000857222
16 *184:144 0.00160666
17 *184:121 0.0016145
18 *184:114 0.0011447
19 *184:60 0.000424452
20 *184:58 0.000707085
21 *184:56 0.000835152
22 *184:54 0.00344439
23 *184:52 0.00344439
24 *184:38 9.978e-05
25 *184:36 0.0019997
26 *184:20 0.00312842
27 *184:6 0.002212
28 *2187:A *198:44 0
29 *2224:A *196:44 0.000285413
30 *2226:A *2226:B 3.57366e-05
31 *2226:A *2392:A 0.000213179
32 *184:20 *201:71 0.00183388
33 *184:20 *211:70 0.00178565
34 *184:36 *2211:B 0.00021298
35 *184:36 *2231:B 4.04683e-05
36 *184:36 *2231:D 0.000101173
37 *184:36 *193:72 0.000309187
38 *184:54 *186:30 5.72694e-05
39 *184:54 *186:36 0.000122075
40 *184:54 *189:56 0.000219375
41 *184:54 *195:42 0.000169233
42 *184:54 *195:50 0.000214792
43 *184:54 *195:72 0
44 *184:54 *206:14 0.00025294
45 *184:54 *209:39 0
46 *184:54 *209:57 0
47 *184:54 *213:30 2.17593e-05
48 *184:54 *213:50 0.000547381
49 *184:54 *213:118 0.00148651
50 *184:114 *2183:B 5.79792e-05
51 *184:144 *2270:A 0.000139907
52 *184:144 *195:132 0.000651538
53 *184:144 *204:28 4.06087e-07
54 *184:144 *211:66 0.00082132
55 *184:155 *195:132 0.000213172
56 *184:155 *211:66 0.000269006
57 *184:161 *2392:A 9.80173e-05
58 *238:DIODE *184:114 2.06112e-05
59 *2182:A *184:114 4.04292e-05
60 *2225:A2 *2225:A1 5.33005e-05
61 *2226:C *2226:A 0.000398822
62 *2226:C *184:161 9.60939e-05
63 *2351:RESET_B *184:20 0.000188527
64 *2351:RESET_B *184:114 4.47218e-05
65 *18:10 *184:36 0
66 *21:36 *184:20 8.68309e-05
67 *29:12 *184:54 0.000854627
68 *56:16 *184:144 0.000135711
69 *58:18 *184:155 3.67452e-05
70 *58:18 *184:161 0.00036561
71 *67:26 *184:161 0.000327099
72 *71:22 *334:DIODE 0
73 *71:22 *2224:A 0
74 *71:22 *184:54 0.000672213
75 *74:10 *2187:A 6.42338e-05
76 *75:32 *184:54 0
77 *94:20 *184:20 1.26871e-05
78 *95:18 *184:114 7.55142e-05
79 *95:46 *184:114 0.000558157
80 *103:34 *2225:A1 7.90803e-05
81 *106:88 *184:144 0.000285513
82 *111:10 *184:155 0.000195555
83 *111:10 *184:161 0.00228125
84 *112:12 *2225:A1 2.59355e-05
85 *112:12 *184:114 0.000913805
86 *112:12 *184:121 0.000230475
87 *112:12 *184:144 0.00108937
88 *112:24 *352:DIODE 5.65955e-05
89 *112:24 *184:38 0.000136676
90 *113:30 *184:54 0.000308592
91 *115:14 *184:36 0.000154417
92 *116:78 *184:36 0.000102696
93 *119:44 *334:DIODE 3.24049e-05
94 *120:14 *184:54 0
95 *120:18 *2224:A 4.78056e-05
96 *121:20 *334:DIODE 0.000383957
97 *121:20 *2187:A 0.000267981
98 *121:20 *184:58 0.000382341
99 *121:20 *184:60 0.000213179
100 *122:35 *334:DIODE 0.000433653
101 *126:8 *2226:A 9.31893e-05
102 *129:12 *184:36 0.000855794
103 *134:113 *184:161 0.00151204
104 *134:126 *184:155 0.000115474
105 *134:126 *184:161 8.32242e-05
106 *134:173 *184:20 0.000173455
107 *134:173 *184:114 0.000111268
108 *141:114 *184:114 0
109 *149:16 *334:DIODE 0.00019384
110 *151:22 *184:144 2.46742e-05
111 *151:22 *184:155 0.000108535
112 *153:30 *184:54 0.000213146
113 *172:160 *184:54 0
114 *174:28 *2224:A 0
*RES
1 *2351:Q *184:6 13.8 
2 *184:6 *184:20 44.1429 
3 *184:20 *184:36 49.4464 
4 *184:36 *184:38 1.35714 
5 *184:38 *352:DIODE 9.83571 
6 *184:38 *2231:A 9.3 
7 *184:20 *184:52 4.5 
8 *184:52 *184:54 75.1071 
9 *184:54 *184:56 4.5 
10 *184:56 *184:58 3.82143 
11 *184:58 *184:60 2.17857 
12 *184:60 *2187:A 22.5321 
13 *184:60 *252:DIODE 9.3 
14 *184:58 *2224:A 23.8893 
15 *184:56 *334:DIODE 28.4607 
16 *184:6 *184:114 23.1429 
17 *184:114 *336:DIODE 9.3 
18 *184:114 *184:121 2.17857 
19 *184:121 *2225:A1 19.8714 
20 *184:121 *184:144 38.6786 
21 *184:144 *348:DIODE 9.3 
22 *184:144 *184:155 11.2857 
23 *184:155 *184:161 34.4107 
24 *184:161 *339:DIODE 9.3 
25 *184:161 *2226:A 13.55 
26 *184:155 *2230:A 13.8 
*END

*D_NET *185 0.0484498
*CONN
*I *2225:B1 I *D sky130_fd_sc_hd__a21o_1
*I *338:DIODE I *D sky130_fd_sc_hd__diode_2
*I *353:DIODE I *D sky130_fd_sc_hd__diode_2
*I *2231:B I *D sky130_fd_sc_hd__and4_1
*I *255:DIODE I *D sky130_fd_sc_hd__diode_2
*I *2187:D_N I *D sky130_fd_sc_hd__or4b_2
*I *2230:B I *D sky130_fd_sc_hd__and4_1
*I *349:DIODE I *D sky130_fd_sc_hd__diode_2
*I *340:DIODE I *D sky130_fd_sc_hd__diode_2
*I *2226:B I *D sky130_fd_sc_hd__nand3_2
*I *2352:Q O *D sky130_fd_sc_hd__dfrtp_4
*CAP
1 *2225:B1 8.24747e-05
2 *338:DIODE 0
3 *353:DIODE 0
4 *2231:B 0.000281919
5 *255:DIODE 0
6 *2187:D_N 5.00052e-05
7 *2230:B 0.000452262
8 *349:DIODE 0
9 *340:DIODE 0
10 *2226:B 0.00036615
11 *2352:Q 0.0004039
12 *185:114 0.00100956
13 *185:86 5.00052e-05
14 *185:84 0.00248039
15 *185:82 0.00248039
16 *185:80 0.00170935
17 *185:78 0.00184447
18 *185:56 0.000484215
19 *185:30 0.0013577
20 *185:20 0.00274091
21 *185:14 0.00290159
22 *2187:D_N *2187:B 6.57032e-05
23 *2230:B *2230:C 5.41794e-05
24 *2230:B *2253:A 0.000137983
25 *2230:B *186:117 0.000187726
26 *2231:B *355:DIODE 0.000139344
27 *2231:B *2231:D 9.41642e-05
28 *185:14 *205:68 8.60628e-05
29 *185:30 *2392:A 7.95355e-05
30 *185:30 *186:117 0.000532672
31 *185:56 *186:117 6.91157e-05
32 *185:78 *202:94 6.88463e-06
33 *185:78 *203:118 0
34 *185:78 *205:68 0.000308701
35 *185:78 *205:94 0.00060992
36 *185:80 *209:111 0.000498096
37 *185:84 *188:14 0.00249688
38 *185:84 *188:102 9.9403e-05
39 *185:84 *204:108 0.000100831
40 *185:114 *355:DIODE 0.000172173
41 *185:114 *362:DIODE 0.000136733
42 *185:114 *2211:B 5.17418e-05
43 *185:114 *193:72 0
44 seg[1] *2226:B 0.000162266
45 *365:DIODE *185:84 0.000164852
46 *472:DIODE *185:78 0
47 *573:DIODE *185:30 9.41642e-05
48 *578:DIODE *185:84 0.000142974
49 *2225:A2 *2225:B1 5.28598e-05
50 *2226:A *2226:B 3.57366e-05
51 *2226:C *2226:B 2.84109e-05
52 *2230:D *2230:B 3.50409e-05
53 *2300:A *185:84 4.43299e-05
54 *2330:A *185:84 5.59013e-05
55 *2352:RESET_B *185:14 0.000216755
56 *2358:CLK *185:114 0.000139907
57 *2358:D *185:114 4.29471e-05
58 *2366:RESET_B *185:30 1.18358e-05
59 *18:10 *185:114 0.000186249
60 *28:20 *185:30 0.000439453
61 *45:12 *2226:B 5.10822e-05
62 *67:16 *2231:B 0
63 *90:18 *185:84 0.000867109
64 *99:8 *2187:D_N 2.12087e-05
65 *105:24 *185:84 0.000983671
66 *109:22 *2230:B 0.000157446
67 *109:22 *185:30 0.00192771
68 *109:22 *185:56 3.92854e-05
69 *112:12 *2225:B1 0.000343585
70 *112:12 *185:80 0.0040816
71 *112:12 *185:114 3.8274e-05
72 *112:24 *2231:B 5.33005e-05
73 *115:112 *2231:B 5.33005e-05
74 *116:78 *2231:B 0.00021693
75 *119:115 *2230:B 0.000227539
76 *119:115 *185:78 2.49942e-05
77 *119:163 *185:78 0.000217462
78 *120:18 *185:84 0.00089181
79 *125:10 *2225:B1 0.000268396
80 *125:10 *185:80 0.00181804
81 *126:8 *2226:B 9.81903e-05
82 *126:8 *185:30 0.000525401
83 *129:12 *2231:B 7.4854e-05
84 *129:12 *185:114 0.000265014
85 *138:32 *185:114 0.000301094
86 *144:24 *185:14 0.000265875
87 *144:24 *185:78 0.00016284
88 *152:20 *185:30 0.000177941
89 *165:10 *2187:D_N 9.60939e-05
90 *170:92 *185:30 0.000504586
91 *172:64 *185:84 0.000340993
92 *172:88 *185:84 0.00151823
93 *174:26 *185:84 0.00097586
94 *174:28 *185:84 0.000146474
95 *174:92 *185:84 0.000933173
96 *176:102 *185:84 0.000102164
97 *176:102 *185:114 0.00014285
98 *177:136 *185:78 6.09476e-05
99 *177:170 *2230:B 1.92582e-05
100 *179:54 *185:20 0.00135465
101 *180:107 *185:14 0.000105105
102 *180:111 *185:20 5.06983e-05
103 *180:128 *185:20 4.00679e-05
104 *180:141 *185:20 1.34631e-05
105 *181:10 *185:84 0.00137393
106 *182:128 *185:14 0
107 *182:128 *185:78 0
108 *184:36 *2231:B 4.04683e-05
*RES
1 *2352:Q *185:14 22.2286 
2 *185:14 *185:20 30.0714 
3 *185:20 *185:30 37.4821 
4 *185:30 *2226:B 24.0321 
5 *185:30 *340:DIODE 9.3 
6 *185:20 *185:56 1.03571 
7 *185:56 *349:DIODE 13.8 
8 *185:56 *2230:B 22.1036 
9 *185:14 *185:78 23.1429 
10 *185:78 *185:80 39.1429 
11 *185:80 *185:82 4.5 
12 *185:82 *185:84 85.125 
13 *185:84 *185:86 4.5 
14 *185:86 *2187:D_N 10.6571 
15 *185:86 *255:DIODE 9.3 
16 *185:80 *185:114 24.6964 
17 *185:114 *2231:B 25.1036 
18 *185:114 *353:DIODE 9.3 
19 *185:78 *338:DIODE 9.3 
20 *185:78 *2225:B1 13.1393 
*END

*D_NET *186 0.0396221
*CONN
*I *2229:A I *D sky130_fd_sc_hd__xnor2_1
*I *2230:C I *D sky130_fd_sc_hd__and4_1
*I *350:DIODE I *D sky130_fd_sc_hd__diode_2
*I *346:DIODE I *D sky130_fd_sc_hd__diode_2
*I *354:DIODE I *D sky130_fd_sc_hd__diode_2
*I *2231:C I *D sky130_fd_sc_hd__and4_1
*I *253:DIODE I *D sky130_fd_sc_hd__diode_2
*I *2187:B I *D sky130_fd_sc_hd__or4b_2
*I *2353:Q O *D sky130_fd_sc_hd__dfrtp_4
*CAP
1 *2229:A 0
2 *2230:C 0.000182481
3 *350:DIODE 4.36033e-05
4 *346:DIODE 0
5 *354:DIODE 4.8649e-05
6 *2231:C 0.000335534
7 *253:DIODE 0
8 *2187:B 0.000316636
9 *2353:Q 0
10 *186:117 0.000730219
11 *186:113 0.000606156
12 *186:100 0.000392215
13 *186:98 0.00258667
14 *186:60 0.00178018
15 *186:58 0.00195991
16 *186:36 0.0010022
17 *186:30 0.00232841
18 *186:10 0.00371238
19 *186:4 0.0038021
20 *2187:B *254:DIODE 0.00039257
21 *2230:C *2253:A 2.28598e-05
22 *186:10 *188:14 0.000124842
23 *186:30 *188:14 0.000542674
24 *186:30 *188:22 5.96516e-05
25 *186:30 *201:54 0.000185944
26 *186:30 *206:14 6.15977e-06
27 *186:30 *213:50 0.000554379
28 *186:36 *196:44 0
29 *186:36 *206:14 0.000151222
30 *186:60 *192:140 0
31 *186:98 *207:37 4.61308e-06
32 *186:113 *2391:A 0.000158902
33 *186:117 *199:74 0.000181923
34 *186:117 *199:76 2.88424e-05
35 *186:117 *199:82 8.74074e-05
36 *2187:D_N *2187:B 6.57032e-05
37 *2230:B *2230:C 5.41794e-05
38 *2230:B *186:117 0.000187726
39 *2230:D *2230:C 0.000137561
40 *2234:B *186:30 0
41 *2353:CLK *186:98 4.69248e-05
42 *2353:D *186:98 3.15694e-05
43 *2354:D *186:98 0.000472727
44 *2359:RESET_B *186:30 1.34631e-05
45 *2366:RESET_B *186:117 0.000244358
46 *23:16 *186:100 7.83659e-05
47 *23:16 *186:113 1.02504e-05
48 *26:38 *186:98 0.00167929
49 *28:20 *186:117 0.000149194
50 *29:12 *186:30 0.000207242
51 *38:10 *186:30 5.01473e-05
52 *38:10 *186:36 0
53 *41:24 *186:100 2.04866e-05
54 *41:24 *186:113 2.26327e-05
55 *44:10 *186:98 5.52238e-05
56 *47:12 *186:100 0.000938877
57 *57:12 *186:113 0.000308997
58 *65:18 *186:100 0.00105536
59 *65:18 *186:113 4.73656e-05
60 *66:24 *186:100 0.000243611
61 *71:22 *186:36 0.000470796
62 *74:10 *186:10 6.06412e-05
63 *74:10 *186:30 0.000276999
64 *90:18 *186:30 0.000144712
65 *99:8 *2187:B 7.48301e-06
66 *110:10 *186:117 0
67 *113:30 *186:30 0.00029657
68 *114:6 *186:58 0.000473926
69 *115:112 *2231:C 0.000357952
70 *116:48 *186:30 1.09181e-05
71 *119:115 *2230:C 1.38323e-05
72 *128:12 *350:DIODE 5.33005e-05
73 *128:12 *2230:C 0.000304394
74 *144:43 *186:10 0.000737204
75 *152:20 *186:117 0.000177941
76 *165:10 *2187:B 0.000124913
77 *165:10 *186:36 3.21277e-05
78 *166:30 *186:36 1.90936e-05
79 *170:113 *2230:C 0.000222666
80 *171:10 *186:60 0.000618271
81 *171:16 *186:60 0.00162968
82 *171:170 *354:DIODE 7.83659e-05
83 *171:170 *186:60 0.00159218
84 *172:62 *186:30 0.000399176
85 *177:170 *2230:C 2.49484e-05
86 *177:170 *186:117 6.42338e-05
87 *179:194 *186:60 0.00219809
88 *184:54 *186:30 5.72694e-05
89 *184:54 *186:36 0.000122075
90 *185:30 *186:117 0.000532672
91 *185:56 *186:117 6.91157e-05
*RES
1 *2353:Q *186:4 9.3 
2 *186:4 *186:10 28.8571 
3 *186:10 *186:30 41.8304 
4 *186:30 *186:36 17.6696 
5 *186:36 *2187:B 16.4429 
6 *186:36 *253:DIODE 9.3 
7 *186:10 *186:58 18.1607 
8 *186:58 *186:60 49 
9 *186:60 *2231:C 18.1571 
10 *186:60 *354:DIODE 14.8357 
11 *186:4 *186:98 42.9464 
12 *186:98 *186:100 13.4821 
13 *186:100 *346:DIODE 13.8 
14 *186:100 *186:113 8.23214 
15 *186:113 *186:117 21.0179 
16 *186:117 *350:DIODE 14.3357 
17 *186:117 *2230:C 19.1929 
18 *186:113 *2229:A 9.3 
*END

*D_NET *187 0.0392306
*CONN
*I *358:DIODE I *D sky130_fd_sc_hd__diode_2
*I *2233:A1 I *D sky130_fd_sc_hd__o21ba_1
*I *355:DIODE I *D sky130_fd_sc_hd__diode_2
*I *2231:D I *D sky130_fd_sc_hd__and4_1
*I *2187:C I *D sky130_fd_sc_hd__or4b_2
*I *254:DIODE I *D sky130_fd_sc_hd__diode_2
*I *2354:Q O *D sky130_fd_sc_hd__dfrtp_2
*CAP
1 *358:DIODE 0
2 *2233:A1 8.35083e-06
3 *355:DIODE 0.000143704
4 *2231:D 0.000140555
5 *2187:C 0
6 *254:DIODE 0.000460552
7 *2354:Q 0.00187992
8 *187:78 0.000566062
9 *187:74 0.00121173
10 *187:66 0.00132976
11 *187:36 0.000774145
12 *187:34 0.00125613
13 *187:22 0.00134237
14 *187:20 0.00271645
15 *187:18 0.00273528
16 *187:16 0.000389057
17 *187:12 0.0022418
18 *187:12 *220:8 0.000381703
19 *187:20 *2180:A 9.71197e-05
20 *187:20 *2180:D 0.00011851
21 *187:20 *191:74 0.0015547
22 *187:20 *191:82 9.71197e-05
23 *187:20 *196:70 0.000114764
24 *187:20 *196:72 2.47753e-05
25 *187:34 *192:24 3.69047e-06
26 *187:36 *198:44 0.000691805
27 *187:78 *192:140 0.000477577
28 *501:DIODE *187:20 0.000136958
29 *2187:B *254:DIODE 0.00039257
30 *2231:B *355:DIODE 0.000139344
31 *2231:B *2231:D 9.41642e-05
32 *2233:B1_N *2233:A1 4.82773e-06
33 *2233:B1_N *187:16 2.39334e-06
34 *2233:B1_N *187:20 0.000204295
35 *17:10 *187:74 0
36 *26:10 *187:34 0.00241558
37 *30:18 *254:DIODE 0.000103974
38 *45:12 *187:12 0
39 *74:10 *254:DIODE 0.000105696
40 *99:8 *254:DIODE 5.52302e-05
41 *100:10 *187:34 0.000114824
42 *108:26 *187:12 0.00187283
43 *108:26 *187:16 0.000400289
44 *116:78 *2231:D 7.24145e-05
45 *116:78 *187:74 0.000696389
46 *125:16 *187:74 6.05161e-06
47 *127:20 *187:34 0.000135575
48 *127:20 *187:74 0.000409714
49 *128:20 *2233:A1 5.04841e-06
50 *128:20 *187:16 1.22691e-05
51 *130:74 *187:20 0.000641383
52 *131:18 *187:34 0
53 *134:8 *187:34 0.000206323
54 *134:10 *187:34 0.000156868
55 *134:16 *187:34 0.000561972
56 *134:224 *187:34 2.16719e-05
57 *136:16 *2231:D 0.000243602
58 *136:16 *187:74 0.00276519
59 *136:16 *187:78 0.000911825
60 *141:40 *187:66 0.000382821
61 *146:28 *187:20 0.00234094
62 *146:28 *187:34 2.15613e-05
63 *148:12 *187:74 0.000651561
64 *153:55 *187:34 7.83587e-05
65 *171:16 *187:34 0.000103974
66 *171:16 *187:66 0.000284988
67 *179:170 *187:34 0.000227984
68 *179:170 *187:66 2.23145e-05
69 *179:181 *187:66 0.00014852
70 *179:194 *187:66 0.000126409
71 *182:26 *187:20 0.00092091
72 *184:36 *2231:D 0.000101173
73 *185:114 *355:DIODE 0.000172173
*RES
1 *2354:Q *187:12 45.9607 
2 *187:12 *187:16 5.38839 
3 *187:16 *187:18 0.401786 
4 *187:18 *187:20 57.5312 
5 *187:20 *187:22 4.5 
6 *187:22 *187:34 46.875 
7 *187:34 *187:36 7.10714 
8 *187:36 *254:DIODE 26.0679 
9 *187:36 *2187:C 9.3 
10 *187:22 *187:66 16.5893 
11 *187:66 *187:74 44.9821 
12 *187:74 *187:78 16.1607 
13 *187:78 *2231:D 22.4071 
14 *187:78 *355:DIODE 12.3 
15 *187:16 *2233:A1 9.67054 
16 *187:12 *358:DIODE 9.3 
*END

*D_NET *188 0.0271022
*CONN
*I *2235:A1 I *D sky130_fd_sc_hd__o211a_1
*I *362:DIODE I *D sky130_fd_sc_hd__diode_2
*I *2234:A I *D sky130_fd_sc_hd__nand2_2
*I *360:DIODE I *D sky130_fd_sc_hd__diode_2
*I *2237:B I *D sky130_fd_sc_hd__and4_1
*I *369:DIODE I *D sky130_fd_sc_hd__diode_2
*I *225:DIODE I *D sky130_fd_sc_hd__diode_2
*I *2178:D_N I *D sky130_fd_sc_hd__or4b_2
*I *2355:Q O *D sky130_fd_sc_hd__dfrtp_2
*CAP
1 *2235:A1 0
2 *362:DIODE 0.000224028
3 *2234:A 3.0641e-05
4 *360:DIODE 0.000170609
5 *2237:B 0.000210862
6 *369:DIODE 6.43826e-05
7 *225:DIODE 0
8 *2178:D_N 0.000206846
9 *2355:Q 0.000726709
10 *188:102 0.000387863
11 *188:42 0.00204834
12 *188:34 0.00195972
13 *188:30 0.000755286
14 *188:24 0.000700631
15 *188:22 0.000296123
16 *188:14 0.00169315
17 *188:8 0.00235766
18 *360:DIODE *201:48 0.000219711
19 *362:DIODE *2211:A 0.000181114
20 *362:DIODE *2211:D 7.06098e-05
21 *2234:A *201:48 2.14658e-05
22 *2237:B *213:50 0.000136682
23 *188:22 *201:54 0
24 *188:42 *219:16 0.000389736
25 *188:102 *2211:C 1.16543e-05
26 *365:DIODE *362:DIODE 0.000182806
27 *2227:B *188:42 7.49621e-05
28 *2234:B *188:22 9.25014e-06
29 *2234:B *188:24 7.57946e-05
30 *2234:B *188:30 9.91086e-05
31 *2235:A2 *188:102 0.000173912
32 *2276:A *2178:D_N 7.22233e-05
33 *2276:A *188:42 0.000104766
34 *2355:D *188:102 1.24368e-05
35 *2355:RESET_B *188:8 8.6902e-05
36 *2359:D *2234:A 9.41642e-05
37 *2359:RESET_B *188:22 0.000259267
38 *18:10 *362:DIODE 6.53562e-05
39 *18:10 *188:14 0
40 *38:10 *188:30 0.000911188
41 *38:10 *188:34 9.80936e-05
42 *74:10 *188:14 0.000362923
43 *90:18 *188:14 0.000632171
44 *100:46 *188:42 0.000581399
45 *105:12 *2237:B 0.000222499
46 *105:24 *188:14 0.000942504
47 *120:18 *188:24 1.41225e-05
48 *120:18 *188:30 0.000363268
49 *120:18 *188:34 2.83806e-05
50 *122:22 *188:42 0
51 *125:26 *188:42 0.000235314
52 *127:20 *188:42 0.000208504
53 *131:42 *2234:A 5.33005e-05
54 *131:44 *188:22 0.000179118
55 *131:44 *188:24 3.06511e-05
56 *138:32 *362:DIODE 1.65914e-05
57 *166:30 *369:DIODE 9.55684e-05
58 *166:30 *188:42 0.000819426
59 *172:62 *188:22 0.000137983
60 *176:74 *188:8 2.59355e-05
61 *176:82 *188:14 0.00165313
62 *176:102 *362:DIODE 6.14702e-06
63 *176:102 *188:14 5.5764e-05
64 *176:102 *188:102 9.10894e-05
65 *179:118 *188:42 0.000195856
66 *179:129 *188:42 0.000188526
67 *179:142 *188:42 0.00131782
68 *185:84 *188:14 0.00249688
69 *185:84 *188:102 9.9403e-05
70 *185:114 *362:DIODE 0.000136733
71 *186:10 *188:14 0.000124842
72 *186:30 *188:14 0.000542674
73 *186:30 *188:22 5.96516e-05
*RES
1 *2355:Q *188:8 22.1393 
2 *188:8 *188:14 49.9643 
3 *188:14 *188:22 14.1429 
4 *188:22 *188:24 1.03571 
5 *188:24 *188:30 14.1429 
6 *188:30 *188:34 5.83929 
7 *188:34 *188:42 46.7143 
8 *188:42 *2178:D_N 21.3 
9 *188:42 *225:DIODE 9.3 
10 *188:34 *369:DIODE 10.2464 
11 *188:30 *2237:B 18.0321 
12 *188:24 *360:DIODE 15.9786 
13 *188:22 *2234:A 14.7464 
14 *188:8 *188:102 8.33929 
15 *188:102 *362:DIODE 23.6571 
16 *188:102 *2235:A1 9.3 
*END

*D_NET *189 0.0285737
*CONN
*I *366:DIODE I *D sky130_fd_sc_hd__diode_2
*I *2236:A I *D sky130_fd_sc_hd__xnor2_2
*I *222:DIODE I *D sky130_fd_sc_hd__diode_2
*I *2178:A I *D sky130_fd_sc_hd__or4b_2
*I *2237:A I *D sky130_fd_sc_hd__and4_1
*I *368:DIODE I *D sky130_fd_sc_hd__diode_2
*I *2356:Q O *D sky130_fd_sc_hd__dfrtp_4
*CAP
1 *366:DIODE 0
2 *2236:A 0.000249726
3 *222:DIODE 0
4 *2178:A 0.000158968
5 *2237:A 0
6 *368:DIODE 3.34103e-05
7 *2356:Q 0.000654671
8 *189:70 0.000289949
9 *189:64 0.000504632
10 *189:60 0.00021727
11 *189:56 0.00174497
12 *189:32 6.10027e-05
13 *189:30 0.00226723
14 *189:22 0.00272503
15 *189:16 0.00291395
16 *189:12 0.0014316
17 *2178:A *2178:C 0.000534049
18 *2178:A *194:75 0.0001871
19 *2236:A *193:10 0
20 *189:22 *2273:A1 0.000229193
21 *189:22 *206:40 0.000434038
22 *189:30 *214:22 4.73786e-05
23 *189:56 *193:10 3.21502e-05
24 *189:56 *195:72 0
25 *189:56 *213:30 4.82385e-05
26 *189:70 *194:75 4.34677e-05
27 *536:DIODE *189:22 5.33005e-05
28 *2236:B *2236:A 1.98839e-05
29 *2273:A2 *189:22 0.000387047
30 *2276:A *189:60 4.25684e-05
31 *2276:A *189:64 0.000183711
32 *2276:B *2178:A 9.84673e-05
33 *2279:B *189:56 0.000518447
34 *2356:CLK *189:12 0.000135028
35 *2356:D *189:12 5.88126e-05
36 *2356:D *189:16 0.00022117
37 *2356:RESET_B *189:12 0.000102653
38 *2362:D *189:16 0.000225307
39 *2377:RESET_B *189:30 5.8946e-05
40 *17:28 *189:22 0.000881572
41 *26:8 *2236:A 0.000185403
42 *26:38 *189:16 7.6644e-05
43 *28:20 *189:16 0.000320499
44 *39:24 *189:22 0.000839236
45 *40:18 *2178:A 0.00026964
46 *40:18 *189:70 5.49995e-05
47 *47:8 *189:22 0.000168048
48 *90:18 *2178:A 8.05775e-05
49 *90:18 *2236:A 9.0837e-05
50 *90:18 *189:70 0.000195263
51 *105:12 *368:DIODE 5.33005e-05
52 *105:12 *189:30 0.000556395
53 *105:12 *189:32 5.33005e-05
54 *106:14 *189:56 0.00126482
55 *109:22 *189:16 0.000911206
56 *110:14 *189:22 0.000397471
57 *116:12 *189:56 0.000651076
58 *122:35 *2236:A 6.65015e-05
59 *126:12 *189:16 0.00203605
60 *126:40 *189:16 0.000235099
61 *157:29 *189:60 0.000100165
62 *159:40 *189:56 0.000258042
63 *162:8 *189:30 0.000211013
64 *166:64 *189:22 0.000926689
65 *169:44 *189:30 0.000211013
66 *174:16 *189:22 8.43386e-05
67 *174:18 *189:22 0.00013926
68 *179:118 *189:70 0.00012249
69 *184:54 *189:56 0.000219375
*RES
1 *2356:Q *189:12 24.7464 
2 *189:12 *189:16 33.7679 
3 *189:16 *189:22 48.2143 
4 *189:22 *189:30 20.6071 
5 *189:30 *189:32 0.535714 
6 *189:32 *368:DIODE 9.83571 
7 *189:32 *2237:A 9.3 
8 *189:30 *189:56 46.8393 
9 *189:56 *189:60 5.85714 
10 *189:60 *189:64 6.26786 
11 *189:64 *189:70 8.19643 
12 *189:70 *2178:A 16.9786 
13 *189:70 *222:DIODE 9.3 
14 *189:64 *2236:A 18.9964 
15 *189:60 *366:DIODE 9.3 
*END

*D_NET *190 0.0298958
*CONN
*I *2180:B I *D sky130_fd_sc_hd__or4_1
*I *231:DIODE I *D sky130_fd_sc_hd__diode_2
*I *2245:B I *D sky130_fd_sc_hd__nand4_2
*I *387:DIODE I *D sky130_fd_sc_hd__diode_2
*I *2241:A1 I *D sky130_fd_sc_hd__a21oi_1
*I *377:DIODE I *D sky130_fd_sc_hd__diode_2
*I *375:DIODE I *D sky130_fd_sc_hd__diode_2
*I *381:DIODE I *D sky130_fd_sc_hd__diode_2
*I *2242:B I *D sky130_fd_sc_hd__and3_2
*I *2240:A I *D sky130_fd_sc_hd__xor2_1
*I *395:DIODE I *D sky130_fd_sc_hd__diode_2
*I *2249:B I *D sky130_fd_sc_hd__and4_2
*I *2357:Q O *D sky130_fd_sc_hd__dfrtp_4
*CAP
1 *2180:B 0.000121239
2 *231:DIODE 0
3 *2245:B 0.000147949
4 *387:DIODE 0
5 *2241:A1 0.000165995
6 *377:DIODE 0
7 *375:DIODE 0
8 *381:DIODE 6.44543e-05
9 *2242:B 0.00010375
10 *2240:A 0
11 *395:DIODE 0.00017677
12 *2249:B 0.000159965
13 *2357:Q 5.30315e-05
14 *190:138 0.000134822
15 *190:118 0.000684295
16 *190:88 0.000606272
17 *190:63 0.000599521
18 *190:52 0.00069077
19 *190:46 0.00290111
20 *190:44 0.00395703
21 *190:38 0.00162832
22 *190:34 0.000426492
23 *190:16 0.000963246
24 *190:6 0.000875574
25 *395:DIODE *2249:D 9.58181e-05
26 *395:DIODE *215:10 1.50961e-05
27 *2180:B *2180:D 5.33005e-05
28 *2180:B *191:90 0.000150625
29 *2180:B *217:30 8.46829e-05
30 *2241:A1 *208:38 7.83659e-05
31 *2249:B *2249:C 4.50349e-06
32 *2249:B *2249:D 9.81408e-05
33 *2249:B *215:10 1.74502e-05
34 *190:6 *217:30 9.05473e-05
35 *190:34 *217:30 0.000243319
36 *190:38 *191:90 0.000249589
37 *190:38 *208:38 0.000488655
38 *190:44 *191:90 4.94195e-05
39 *190:44 *204:82 0
40 *190:44 *208:38 0.00139609
41 *190:88 *208:38 0
42 *190:88 *213:12 0.000194684
43 *190:118 *2245:A 5.33005e-05
44 *190:118 *191:112 0.000385089
45 *190:118 *205:58 9.60808e-05
46 *190:138 *217:30 4.27935e-05
47 *2193:A *190:44 5.48248e-05
48 *2281:B *395:DIODE 1.58163e-05
49 *20:12 *190:44 0.000107449
50 *26:32 *190:16 2.41972e-05
51 *35:22 *190:44 0.000175892
52 *35:22 *190:46 0.00268067
53 *41:18 *190:88 0.00023348
54 *48:12 *190:118 0.000386121
55 *51:12 *190:16 0.000459272
56 *73:18 *2245:B 0.000137561
57 *73:18 *190:118 0.000552525
58 *75:38 *2245:B 8.38397e-05
59 *89:12 *190:16 0.000990587
60 *95:24 *190:16 0
61 *115:34 *190:52 5.59013e-05
62 *115:34 *190:63 0.00126877
63 *116:12 *190:52 5.7616e-05
64 *116:12 *190:63 0.00125836
65 *123:18 *190:44 4.96013e-05
66 *134:47 *190:88 0.000262506
67 *134:65 *190:44 2.00751e-05
68 *134:103 *190:44 1.5942e-05
69 *138:26 *2245:B 0.000169454
70 *143:12 *190:46 0.000812247
71 *143:12 *190:52 0.000354105
72 *143:20 *190:46 0.000106343
73 *151:92 *190:88 0
74 *164:18 *2241:A1 4.54397e-05
75 *166:64 *190:44 4.1861e-05
76 *166:66 *2180:B 0.000148903
77 *169:40 *381:DIODE 9.60939e-05
78 *169:40 *2242:B 0.000137983
79 *169:100 *190:44 7.29633e-05
80 *172:46 *2180:B 3.14048e-05
81 *172:46 *190:34 9.58478e-05
82 *172:46 *190:138 1.92905e-05
83 *173:18 *190:16 0.000168219
84 *174:165 *190:6 0.000139202
85 *174:165 *190:16 6.05161e-06
86 *175:64 *190:44 0
87 *180:58 *190:118 9.77956e-05
88 *183:43 *2241:A1 1.33343e-05
89 *183:51 *2241:A1 7.6644e-05
90 *183:51 *190:88 2.34204e-05
*RES
1 *2357:Q *190:6 11.0679 
2 *190:6 *190:16 23.75 
3 *190:16 *2249:B 11.4964 
4 *190:16 *395:DIODE 11.4786 
5 *190:6 *190:34 4.64286 
6 *190:34 *190:38 11 
7 *190:38 *190:44 24.9107 
8 *190:44 *190:46 35.8571 
9 *190:46 *190:52 8.64286 
10 *190:52 *2240:A 13.8 
11 *190:52 *190:63 21.0179 
12 *190:63 *2242:B 10.6571 
13 *190:63 *381:DIODE 10.2464 
14 *190:46 *375:DIODE 9.3 
15 *190:44 *190:88 19.75 
16 *190:88 *377:DIODE 9.3 
17 *190:88 *2241:A1 21.1036 
18 *190:38 *190:118 24.125 
19 *190:118 *387:DIODE 9.3 
20 *190:118 *2245:B 21.9071 
21 *190:34 *190:138 0.535714 
22 *190:138 *231:DIODE 9.3 
23 *190:138 *2180:B 21.7286 
*END

*D_NET *191 0.0392977
*CONN
*I *230:DIODE I *D sky130_fd_sc_hd__diode_2
*I *2180:A I *D sky130_fd_sc_hd__or4_1
*I *2245:A I *D sky130_fd_sc_hd__nand4_2
*I *386:DIODE I *D sky130_fd_sc_hd__diode_2
*I *2241:B1 I *D sky130_fd_sc_hd__a21oi_1
*I *379:DIODE I *D sky130_fd_sc_hd__diode_2
*I *2249:A I *D sky130_fd_sc_hd__and4_2
*I *394:DIODE I *D sky130_fd_sc_hd__diode_2
*I *380:DIODE I *D sky130_fd_sc_hd__diode_2
*I *2242:A I *D sky130_fd_sc_hd__and3_2
*I *2358:Q O *D sky130_fd_sc_hd__dfrtp_4
*CAP
1 *230:DIODE 0
2 *2180:A 2.35103e-05
3 *2245:A 0.000257037
4 *386:DIODE 0
5 *2241:B1 0
6 *379:DIODE 0.000108672
7 *2249:A 3.57567e-05
8 *394:DIODE 0
9 *380:DIODE 0.000251401
10 *2242:A 0.000100756
11 *2358:Q 0.000193881
12 *191:112 0.000654202
13 *191:98 0.00098165
14 *191:90 0.00181457
15 *191:82 0.000627389
16 *191:74 0.00161288
17 *191:52 0.00054204
18 *191:40 0.00389141
19 *191:16 0.000634638
20 *191:14 0.00387645
21 *191:8 0.00195615
22 *380:DIODE *201:22 8.33968e-05
23 *380:DIODE *201:31 5.33005e-05
24 *2180:A *2180:D 4.43256e-05
25 *2245:A *2245:C 2.60984e-05
26 *2249:A *2249:C 9.87672e-05
27 *191:14 *193:50 2.22278e-05
28 *191:40 *195:42 0.000308924
29 *191:52 *2249:C 0.000337022
30 *191:52 *192:38 0.000670436
31 *191:52 *192:61 0.000141729
32 *191:52 *193:22 0.000558814
33 *191:74 *2210:A 6.05161e-06
34 *191:74 *197:20 0.000259586
35 *191:82 *2180:D 5.33334e-05
36 *191:90 *250:DIODE 0.000135028
37 *191:90 *208:32 0
38 *191:90 *208:38 2.79585e-05
39 *191:98 *194:20 0.000207847
40 *191:98 *194:41 9.11541e-06
41 *191:98 *204:82 0.00173359
42 *191:98 *208:38 0
43 *378:DIODE *379:DIODE 0.000128496
44 *378:DIODE *191:98 0.000144773
45 *2180:B *191:90 0.000150625
46 *2248:B_N *191:14 0.000197516
47 *2341:RESET_B *2245:A 7.622e-05
48 *2359:RESET_B *191:16 0.000149911
49 *16:8 *2245:A 0.000193118
50 *19:12 *191:52 0.000595881
51 *31:14 *191:14 0.000491805
52 *48:8 *2242:A 5.52302e-05
53 *55:20 *191:74 0.000258063
54 *56:18 *191:52 0.000597467
55 *73:18 *191:90 1.98839e-05
56 *73:18 *191:112 6.12434e-05
57 *92:8 *191:82 4.27842e-06
58 *106:10 *191:14 7.15591e-05
59 *106:168 *191:14 0.00018197
60 *112:24 *191:8 0.000349598
61 *113:32 *2242:A 5.71472e-05
62 *114:6 *191:40 0.000912434
63 *114:6 *191:74 0.000153008
64 *115:14 *191:14 0.00286708
65 *115:60 *191:52 0.000193849
66 *115:112 *191:8 0.000269434
67 *115:112 *191:14 0.000297388
68 *116:14 *2242:A 0.00010922
69 *116:14 *191:16 5.71727e-05
70 *116:72 *191:14 0.000321159
71 *116:72 *191:16 0.000295362
72 *119:38 *191:74 5.74499e-06
73 *126:22 *379:DIODE 9.31893e-05
74 *134:47 *379:DIODE 5.71472e-05
75 *134:103 *191:90 0.000187661
76 *138:26 *2245:A 5.96006e-05
77 *141:26 *191:52 0.000136682
78 *141:40 *191:40 0.000262841
79 *144:56 *2242:A 0.000215441
80 *144:56 *191:14 0.000232259
81 *144:56 *191:16 0.00082306
82 *149:32 *191:52 0.000130443
83 *158:22 *191:14 0.000485724
84 *158:22 *191:16 0.000121565
85 *166:66 *191:82 0
86 *166:66 *191:90 0.000244174
87 *169:100 *191:90 9.25014e-06
88 *180:52 *191:98 1.95304e-05
89 *181:78 *191:98 2.14658e-05
90 *182:26 *191:82 5.29529e-05
91 *182:26 *191:90 6.87839e-06
92 *183:12 *2245:A 1.78874e-05
93 *183:33 *191:98 0.000156081
94 *183:37 *191:98 0.00157742
95 *183:51 *379:DIODE 0.000227532
96 *183:150 *2245:A 6.59765e-05
97 *187:20 *2180:A 9.71197e-05
98 *187:20 *191:74 0.0015547
99 *187:20 *191:82 9.71197e-05
100 *190:38 *191:90 0.000249589
101 *190:44 *191:90 4.94195e-05
102 *190:118 *2245:A 5.33005e-05
103 *190:118 *191:112 0.000385089
*RES
1 *2358:Q *191:8 20.0857 
2 *191:8 *191:14 49.9643 
3 *191:14 *191:16 10.75 
4 *191:16 *2242:A 17.1929 
5 *191:16 *380:DIODE 16.8 
6 *191:14 *191:40 27.625 
7 *191:40 *191:52 27.6607 
8 *191:52 *394:DIODE 9.3 
9 *191:52 *2249:A 10.2464 
10 *191:40 *191:74 31.1964 
11 *191:74 *191:82 10.6786 
12 *191:82 *191:90 21.5179 
13 *191:90 *191:98 37.3036 
14 *191:98 *379:DIODE 12.7107 
15 *191:98 *2241:B1 9.3 
16 *191:90 *191:112 5.05357 
17 *191:112 *386:DIODE 9.3 
18 *191:112 *2245:A 23.4786 
19 *191:82 *2180:A 10.2464 
20 *191:74 *230:DIODE 9.3 
*END

*D_NET *192 0.04753
*CONN
*I *384:DIODE I *D sky130_fd_sc_hd__diode_2
*I *2244:A I *D sky130_fd_sc_hd__or2_1
*I *227:DIODE I *D sky130_fd_sc_hd__diode_2
*I *2179:B I *D sky130_fd_sc_hd__nand4_1
*I *388:DIODE I *D sky130_fd_sc_hd__diode_2
*I *2245:C I *D sky130_fd_sc_hd__nand4_2
*I *2249:D I *D sky130_fd_sc_hd__and4_2
*I *397:DIODE I *D sky130_fd_sc_hd__diode_2
*I *2359:Q O *D sky130_fd_sc_hd__dfrtp_4
*CAP
1 *384:DIODE 0.000180046
2 *2244:A 1.1624e-05
3 *227:DIODE 0.000187498
4 *2179:B 0
5 *388:DIODE 0
6 *2245:C 0.000321815
7 *2249:D 0.00018845
8 *397:DIODE 0
9 *2359:Q 0.000594648
10 *192:140 0.00162627
11 *192:126 0.00203881
12 *192:120 0.00390275
13 *192:92 0.00117116
14 *192:76 0.00403773
15 *192:61 0.00200054
16 *192:38 0.000998008
17 *192:36 0.00295665
18 *192:26 0.00422888
19 *192:24 0.000755143
20 *384:DIODE *2216:A 0
21 *2244:A *2216:B 5.52238e-05
22 *2249:D *215:10 6.38037e-05
23 *192:36 *198:68 2.1527e-05
24 *192:36 *206:40 0.000280248
25 *192:36 *210:86 0.000347642
26 *192:61 *206:56 0.000122682
27 *192:61 *206:88 6.73939e-05
28 *192:120 *211:60 0.000665472
29 *192:126 *2179:C 1.32552e-05
30 *192:126 *2179:D 0.000151071
31 *192:126 *2207:A 3.9342e-05
32 *192:126 *2253:A 0.000148189
33 *192:126 *211:60 0.000628369
34 *192:126 *211:118 4.8936e-05
35 *192:126 *213:152 3.92854e-05
36 *192:126 *214:106 6.42338e-05
37 *385:DIODE *384:DIODE 5.53499e-05
38 *385:DIODE *192:140 4.1331e-06
39 *395:DIODE *2249:D 9.58181e-05
40 *2207:B *192:126 7.67241e-05
41 *2238:D *192:92 0.000135028
42 *2245:A *2245:C 2.60984e-05
43 *2249:B *2249:D 9.81408e-05
44 *2341:RESET_B *2245:C 0.000104719
45 *2346:RESET_B *192:61 3.27075e-05
46 *2346:RESET_B *192:76 0.000103899
47 *2346:RESET_B *192:120 0.000104994
48 *2361:D *192:24 6.05161e-06
49 *2368:D *2249:D 0.000353113
50 *2370:RESET_B *192:126 0
51 *16:8 *192:92 0.000377573
52 *26:10 *192:24 0.000618565
53 *33:26 *2245:C 8.93791e-05
54 *36:26 *192:92 0.000170809
55 *58:18 *192:126 0
56 *67:26 *192:120 0.000154232
57 *67:26 *192:126 0.000265721
58 *73:12 *192:36 0.000921505
59 *75:16 *192:36 0.00137211
60 *89:12 *2249:D 0.000350078
61 *94:20 *192:61 0
62 *95:24 *192:61 0.000352761
63 *100:75 *192:26 0.000712766
64 *100:75 *192:140 0.000454142
65 *103:14 *192:92 0.000920878
66 *106:134 *384:DIODE 0.000186669
67 *109:16 *192:126 0
68 *109:20 *192:126 0
69 *109:22 *192:126 0
70 *112:10 *192:126 0.00022317
71 *115:60 *192:38 0.000259542
72 *118:22 *2244:A 5.52238e-05
73 *119:119 *192:126 0.000170654
74 *119:133 *192:120 0.00064499
75 *119:133 *192:126 0.000980425
76 *125:24 *192:24 9.48025e-05
77 *125:24 *192:140 0.000681778
78 *127:20 *192:26 0.000155308
79 *127:20 *192:140 0.000172687
80 *129:10 *192:140 4.89267e-05
81 *133:16 *192:61 0.000115556
82 *134:75 *2245:C 0.000567698
83 *134:224 *192:24 0.000117378
84 *136:16 *192:24 4.66368e-05
85 *136:16 *192:140 0.000105807
86 *138:26 *2245:C 1.21258e-05
87 *141:8 *192:61 0
88 *141:26 *192:61 3.23544e-05
89 *146:28 *192:24 0.000178847
90 *147:10 *192:26 0.000709337
91 *147:10 *192:140 0.00122034
92 *156:65 *2245:C 0.000232583
93 *156:65 *192:92 0.000456391
94 *171:170 *384:DIODE 0
95 *171:180 *384:DIODE 0.000186669
96 *177:170 *192:126 0
97 *178:48 *2245:C 0.000232583
98 *178:48 *192:92 0.000854611
99 *178:74 *192:92 0.000646714
100 *179:170 *192:24 0.000228707
101 *179:181 *192:24 0.000139954
102 *179:194 *192:24 0.000375278
103 *179:194 *192:140 0
104 *183:150 *192:92 0.000188875
105 *186:60 *192:140 0
106 *187:34 *192:24 3.69047e-06
107 *187:78 *192:140 0.000477577
108 *191:52 *192:38 0.000670436
109 *191:52 *192:61 0.000141729
*RES
1 *2359:Q *192:24 48.3714 
2 *192:24 *192:26 8.92857 
3 *192:26 *192:36 49.5179 
4 *192:36 *192:38 6.69643 
5 *192:38 *397:DIODE 9.3 
6 *192:38 *192:61 25.9933 
7 *192:61 *2249:D 24.7464 
8 *192:61 *192:76 12.0357 
9 *192:76 *192:92 40.9643 
10 *192:92 *2245:C 22.8536 
11 *192:92 *388:DIODE 13.8 
12 *192:76 *192:120 33.3482 
13 *192:120 *192:126 47.3482 
14 *192:126 *2179:B 9.3 
15 *192:126 *227:DIODE 11.4786 
16 *192:26 *192:140 39.2857 
17 *192:140 *2244:A 14.3357 
18 *192:140 *384:DIODE 18.425 
*END

*D_NET *193 0.0382336
*CONN
*I *2179:A I *D sky130_fd_sc_hd__nand4_1
*I *226:DIODE I *D sky130_fd_sc_hd__diode_2
*I *2248:A I *D sky130_fd_sc_hd__or2b_1
*I *392:DIODE I *D sky130_fd_sc_hd__diode_2
*I *2249:C I *D sky130_fd_sc_hd__and4_2
*I *396:DIODE I *D sky130_fd_sc_hd__diode_2
*I *2360:Q O *D sky130_fd_sc_hd__dfrtp_4
*CAP
1 *2179:A 0.00036107
2 *226:DIODE 0
3 *2248:A 0
4 *392:DIODE 0.000116254
5 *2249:C 0.000225987
6 *396:DIODE 0
7 *2360:Q 0.000107725
8 *193:74 0.00379645
9 *193:72 0.00423287
10 *193:59 0.000887307
11 *193:50 0.00165857
12 *193:22 0.00191498
13 *193:10 0.0051921
14 *193:8 0.00215833
15 *2179:A *213:146 4.0342e-06
16 *2249:C *215:10 0.000522568
17 *193:10 *2221:A1 5.54204e-05
18 *193:22 *214:53 0.000422785
19 *193:22 *215:10 0.00070712
20 *193:50 *214:68 0.000475526
21 *193:72 *2211:D 3.69047e-06
22 *193:72 *214:68 0
23 *193:72 *214:87 0
24 *193:72 *214:98 0
25 *193:74 *213:146 4.8035e-05
26 *193:74 *214:100 0.00387148
27 *2221:A2 *193:50 3.48013e-05
28 *2236:A *193:10 0
29 *2236:B *193:10 4.25809e-05
30 *2249:A *2249:C 9.87672e-05
31 *2249:B *2249:C 4.50349e-06
32 *2358:D *193:72 2.26973e-05
33 *2358:RESET_B *193:50 0.000722847
34 *2370:RESET_B *2179:A 8.50795e-06
35 *18:10 *193:72 0
36 *19:12 *193:22 1.90936e-05
37 *26:10 *193:10 0
38 *31:14 *193:50 6.38844e-06
39 *31:14 *193:72 0
40 *33:12 *193:10 0.000219745
41 *56:18 *193:22 2.06112e-05
42 *91:14 *2179:A 6.58289e-05
43 *104:36 *193:72 0.000156271
44 *106:10 *193:10 0.000284758
45 *106:14 *193:10 0.00144939
46 *106:168 *193:10 0.000109277
47 *106:168 *193:50 5.09797e-05
48 *115:14 *193:72 7.07116e-05
49 *115:112 *193:72 0.000194835
50 *131:18 *193:10 0.000465194
51 *133:16 *193:10 0.000403537
52 *133:16 *193:22 0.00266153
53 *136:10 *193:10 0.000115369
54 *140:12 *392:DIODE 5.49995e-05
55 *141:8 *2249:C 1.08392e-05
56 *141:26 *193:22 0.000136951
57 *158:22 *193:10 0.000283592
58 *168:12 *193:10 0.00163047
59 *169:34 *193:10 1.69115e-05
60 *169:34 *193:50 0.000813946
61 *179:118 *193:10 3.59945e-05
62 *184:36 *193:72 0.000309187
63 *185:114 *193:72 0
64 *189:56 *193:10 3.21502e-05
65 *191:14 *193:50 2.22278e-05
66 *191:52 *2249:C 0.000337022
67 *191:52 *193:22 0.000558814
*RES
1 *2360:Q *193:8 15.5679 
2 *193:8 *193:10 58.5625 
3 *193:10 *193:22 23.0749 
4 *193:22 *396:DIODE 9.3 
5 *193:22 *2249:C 24.6214 
6 *193:10 *193:50 40.6518 
7 *193:50 *392:DIODE 10.6571 
8 *193:50 *193:59 0.946429 
9 *193:59 *2248:A 9.3 
10 *193:59 *193:72 23.75 
11 *193:72 *193:74 68.7143 
12 *193:74 *226:DIODE 9.3 
13 *193:74 *2179:A 24.5679 
*END

*D_NET *194 0.0310929
*CONN
*I *266:DIODE I *D sky130_fd_sc_hd__diode_2
*I *2192:B I *D sky130_fd_sc_hd__or2_1
*I *264:DIODE I *D sky130_fd_sc_hd__diode_2
*I *277:DIODE I *D sky130_fd_sc_hd__diode_2
*I *2199:A2 I *D sky130_fd_sc_hd__a31o_1
*I *2197:B I *D sky130_fd_sc_hd__and4_1
*I *273:DIODE I *D sky130_fd_sc_hd__diode_2
*I *224:DIODE I *D sky130_fd_sc_hd__diode_2
*I *2178:C I *D sky130_fd_sc_hd__or4b_2
*I *2193:B I *D sky130_fd_sc_hd__nand2_2
*I *2342:Q O *D sky130_fd_sc_hd__dfrtp_4
*CAP
1 *266:DIODE 4.36033e-05
2 *2192:B 4.21443e-05
3 *264:DIODE 0.000273421
4 *277:DIODE 0
5 *2199:A2 0
6 *2197:B 0.000110484
7 *273:DIODE 3.92518e-05
8 *224:DIODE 0
9 *2178:C 0.000178249
10 *2193:B 0.000429437
11 *2342:Q 0.00227161
12 *194:95 0.000410244
13 *194:75 0.000624585
14 *194:73 0.00193654
15 *194:61 0.00161369
16 *194:55 0.000505531
17 *194:49 0.000438192
18 *194:47 0.00090695
19 *194:41 0.0010485
20 *194:20 0.000799804
21 *194:18 0.00245865
22 *2193:B *213:182 0.000108353
23 *2197:B *2197:D 0.000221634
24 *194:20 *204:76 3.39401e-05
25 *194:20 *204:82 0.000102414
26 *194:20 *205:58 1.34436e-05
27 *194:41 *205:58 0.000243523
28 *194:47 *205:14 0.000292984
29 *194:47 *205:58 0.00114971
30 *194:47 *208:38 0
31 *194:49 *205:14 2.17476e-05
32 *194:49 *208:38 0
33 *194:55 *205:14 3.54498e-05
34 *194:61 *279:DIODE 8.43535e-06
35 *194:61 *208:66 9.41642e-05
36 *194:73 *205:22 5.36422e-05
37 *194:73 *205:28 0.0013259
38 *194:95 *205:28 0
39 *263:DIODE *2192:B 1.82029e-05
40 *276:DIODE *194:73 9.41642e-05
41 *528:DIODE *194:73 7.88091e-05
42 *559:DIODE *194:18 0.00038907
43 *2178:A *2178:C 0.000534049
44 *2178:A *194:75 0.0001871
45 *2178:B *2178:C 0.000272055
46 *2342:CLK *194:18 1.98839e-05
47 *2342:D *194:18 0.000125024
48 *2342:RESET_B *194:18 0.0016764
49 *2381:A *2193:B 9.41642e-05
50 *17:28 *266:DIODE 5.33005e-05
51 *21:22 *273:DIODE 5.50052e-05
52 *21:22 *2197:B 8.48937e-05
53 *39:24 *2193:B 0.000109272
54 *40:18 *194:73 0.000237229
55 *40:18 *194:75 0.000274162
56 *75:32 *2193:B 0
57 *119:44 *2197:B 5.49995e-05
58 *130:52 *194:18 9.60939e-05
59 *134:103 *194:18 5.75147e-05
60 *143:20 *194:47 0.000393445
61 *151:92 *2193:B 9.58632e-05
62 *153:20 *2193:B 0.000194512
63 *162:8 *2197:B 3.54081e-05
64 *162:8 *194:95 3.9733e-05
65 *164:18 *264:DIODE 0.000394942
66 *164:18 *2192:B 9.84673e-05
67 *171:92 *194:73 0.000111992
68 *179:100 *194:55 4.77002e-05
69 *179:100 *194:61 0.000100082
70 *179:106 *194:73 1.12713e-05
71 *179:106 *194:75 0.00194387
72 *180:52 *194:41 0.000190127
73 *180:52 *194:47 0.000371128
74 *180:58 *194:20 0.000410946
75 *183:37 *194:47 0.000754174
76 *183:43 *2192:B 3.11088e-05
77 *183:67 *2178:C 0.000279977
78 *183:67 *194:75 0.00262227
79 *183:67 *194:95 7.31107e-05
80 *183:101 *194:61 0.000259394
81 *183:101 *194:73 1.00887e-05
82 *183:125 *2192:B 1.52131e-05
83 *189:70 *194:75 4.34677e-05
84 *191:98 *194:20 0.000207847
85 *191:98 *194:41 9.11541e-06
*RES
1 *2342:Q *194:18 49.8536 
2 *194:18 *194:20 6.04464 
3 *194:20 *2193:B 23.8972 
4 *194:20 *194:41 4.25893 
5 *194:41 *194:47 23.5536 
6 *194:47 *194:49 0.732143 
7 *194:49 *194:55 6.48214 
8 *194:55 *194:61 10.9643 
9 *194:61 *194:73 26.4643 
10 *194:73 *194:75 26.4107 
11 *194:75 *2178:C 16.3357 
12 *194:75 *224:DIODE 9.3 
13 *194:73 *194:95 8.875 
14 *194:95 *273:DIODE 14.3357 
15 *194:95 *2197:B 17.0143 
16 *194:61 *2199:A2 13.8 
17 *194:55 *277:DIODE 9.3 
18 *194:49 *264:DIODE 17.6214 
19 *194:47 *2192:B 15.175 
20 *194:41 *266:DIODE 14.3357 
*END

*D_NET *195 0.0425386
*CONN
*I *2254:B1 I *D sky130_fd_sc_hd__a21oi_1
*I *408:DIODE I *D sky130_fd_sc_hd__diode_2
*I *403:DIODE I *D sky130_fd_sc_hd__diode_2
*I *2253:A I *D sky130_fd_sc_hd__and3_2
*I *2180:D I *D sky130_fd_sc_hd__or4_1
*I *233:DIODE I *D sky130_fd_sc_hd__diode_2
*I *2262:B I *D sky130_fd_sc_hd__and3_1
*I *425:DIODE I *D sky130_fd_sc_hd__diode_2
*I *2361:Q O *D sky130_fd_sc_hd__dfrtp_4
*CAP
1 *2254:B1 0.000233792
2 *408:DIODE 0
3 *403:DIODE 0
4 *2253:A 0.000192688
5 *2180:D 0.000283763
6 *233:DIODE 0
7 *2262:B 0
8 *425:DIODE 9.04634e-05
9 *2361:Q 0.00027056
10 *195:156 0.000812273
11 *195:132 0.00207677
12 *195:120 0.00440682
13 *195:90 0.00230758
14 *195:72 0.00197213
15 *195:50 0.00410836
16 *195:42 0.00151247
17 *195:6 0.00352442
18 *2180:D *2180:C 5.15529e-05
19 *2180:D *196:72 3.69047e-06
20 *2253:A *211:60 0.000146474
21 *2254:B1 *210:58 7.20784e-05
22 *195:42 *213:92 0.000572328
23 *195:72 *209:14 0.00010421
24 *195:72 *213:30 0
25 *195:120 *237:DIODE 2.34612e-05
26 *195:120 *2181:C 0.000282646
27 *195:120 *2181:D_N 1.02301e-05
28 *195:120 *197:46 5.11646e-05
29 *195:120 *199:92 7.25873e-06
30 *195:120 *212:12 0.00141617
31 *195:132 *2270:A 8.6229e-06
32 *195:156 *210:58 9.15469e-05
33 *195:156 *212:10 0.000483472
34 *195:156 *212:12 0.000406289
35 *406:DIODE *2254:B1 5.63975e-05
36 *407:DIODE *2254:B1 0.000230155
37 *2180:A *2180:D 4.43256e-05
38 *2180:B *2180:D 5.33005e-05
39 *2230:B *2253:A 0.000137983
40 *2230:C *2253:A 2.28598e-05
41 *2230:D *2253:A 5.49489e-05
42 *2253:B *2253:A 1.90303e-05
43 *2361:RESET_B *195:6 0.000288691
44 *2361:RESET_B *195:42 0.00031273
45 *2361:RESET_B *195:120 5.49995e-05
46 *29:12 *195:42 0
47 *29:12 *195:50 0.000215611
48 *35:22 *195:72 9.76123e-05
49 *56:16 *195:132 0.00098398
50 *60:10 *195:120 0.00141596
51 *60:10 *195:156 0.000885356
52 *65:12 *195:132 5.63666e-05
53 *66:24 *195:132 6.8851e-05
54 *67:16 *195:132 0.00344734
55 *71:22 *195:72 0
56 *75:32 *195:90 0.000135028
57 *106:88 *195:132 0.000158483
58 *114:6 *195:42 0.00030868
59 *120:14 *195:72 0.000136768
60 *131:44 *195:42 9.56115e-05
61 *132:18 *195:72 2.11419e-05
62 *146:28 *195:50 0.000116824
63 *146:28 *195:90 0.00193956
64 *149:16 *195:72 0.00157308
65 *151:22 *195:132 0.000866627
66 *153:20 *195:72 0.000508664
67 *181:22 *195:42 9.58181e-05
68 *182:26 *2180:D 0.000138881
69 *182:26 *195:90 0.000315061
70 *182:46 *425:DIODE 0.000143375
71 *182:46 *195:72 4.33899e-05
72 *182:80 *195:42 9.41642e-05
73 *184:54 *195:42 0.000169233
74 *184:54 *195:50 0.000214792
75 *184:54 *195:72 0
76 *184:144 *195:132 0.000651538
77 *184:155 *195:132 0.000213172
78 *187:20 *2180:D 0.00011851
79 *189:56 *195:72 0
80 *191:40 *195:42 0.000308924
81 *191:82 *2180:D 5.33334e-05
82 *192:126 *2253:A 0.000148189
*RES
1 *2361:Q *195:6 14.7643 
2 *195:6 *195:42 47.7679 
3 *195:42 *195:50 14.0357 
4 *195:50 *195:72 47.3929 
5 *195:72 *425:DIODE 10.6571 
6 *195:72 *2262:B 9.3 
7 *195:50 *195:90 27.375 
8 *195:90 *233:DIODE 9.3 
9 *195:90 *2180:D 15.2286 
10 *195:6 *195:120 44.9375 
11 *195:120 *195:132 27.7293 
12 *195:132 *2253:A 22.8357 
13 *195:132 *403:DIODE 9.3 
14 *195:120 *195:156 19.7232 
15 *195:156 *408:DIODE 9.3 
16 *195:156 *2254:B1 13.9607 
*END

*D_NET *196 0.0373361
*CONN
*I *232:DIODE I *D sky130_fd_sc_hd__diode_2
*I *416:DIODE I *D sky130_fd_sc_hd__diode_2
*I *2258:A I *D sky130_fd_sc_hd__nand3_2
*I *413:DIODE I *D sky130_fd_sc_hd__diode_2
*I *2257:A1 I *D sky130_fd_sc_hd__a21o_1
*I *2180:C I *D sky130_fd_sc_hd__or4_1
*I *2262:A I *D sky130_fd_sc_hd__and3_1
*I *424:DIODE I *D sky130_fd_sc_hd__diode_2
*I *411:DIODE I *D sky130_fd_sc_hd__diode_2
*I *2256:A I *D sky130_fd_sc_hd__xor2_1
*I *2362:Q O *D sky130_fd_sc_hd__dfrtp_4
*CAP
1 *232:DIODE 0
2 *416:DIODE 0
3 *2258:A 0.000469603
4 *413:DIODE 0.000331795
5 *2257:A1 0
6 *2180:C 7.74613e-05
7 *2262:A 2.26191e-05
8 *424:DIODE 0.000295023
9 *411:DIODE 0
10 *2256:A 0.00032134
11 *2362:Q 0.000703363
12 *196:117 0.00197648
13 *196:95 0.000331795
14 *196:93 0.00194602
15 *196:72 0.000635121
16 *196:70 0.000908067
17 *196:44 0.000957552
18 *196:18 0.0010288
19 *196:16 0.00466078
20 *196:14 0.003784
21 *196:10 0.0019635
22 *2258:A *417:DIODE 8.27238e-06
23 *2258:A *2258:B 0
24 *2258:A *197:68 3.63775e-05
25 *2262:A *198:44 0.00012835
26 *196:14 *199:134 0.000655821
27 *196:44 *198:44 0.000356428
28 *196:44 *218:34 0
29 *196:93 *204:76 0.000192159
30 *414:DIODE *413:DIODE 3.0166e-05
31 *2180:D *2180:C 5.15529e-05
32 *2180:D *196:72 3.69047e-06
33 *2224:A *196:44 0.000285413
34 *2258:C *2258:A 8.56851e-05
35 *2258:C *196:117 0.0001399
36 *2294:A *413:DIODE 9.41642e-05
37 *2362:RESET_B *196:10 4.87953e-05
38 *2376:RESET_B *196:93 8.95645e-05
39 *16:8 *196:14 0
40 *33:16 *2256:A 2.79421e-05
41 *33:16 *196:16 0.000997988
42 *33:16 *196:18 0.000307806
43 *33:26 *196:16 0.00148083
44 *38:10 *196:44 0.00045092
45 *42:24 *196:14 0.000169715
46 *42:24 *196:70 0.000112594
47 *48:12 *196:10 0.00081708
48 *71:22 *424:DIODE 0.000100823
49 *71:22 *196:44 0
50 *73:18 *196:10 9.76435e-06
51 *75:38 *196:14 0.00107708
52 *92:8 *196:93 0.000685447
53 *92:8 *196:117 0.00156751
54 *120:18 *196:44 0.00024557
55 *122:35 *424:DIODE 0.0003613
56 *131:18 *2256:A 0.000126416
57 *134:16 *2256:A 6.66813e-05
58 *138:26 *196:14 0
59 *138:26 *196:70 0
60 *144:24 *196:117 0.00164722
61 *144:26 *196:117 4.08637e-05
62 *147:8 *2258:A 1.92789e-05
63 *156:140 *413:DIODE 0.000137983
64 *166:66 *196:93 0.000567306
65 *166:77 *196:93 0.000117189
66 *166:77 *196:117 7.83659e-05
67 *166:90 *196:117 0.00149768
68 *167:24 *413:DIODE 0.000136958
69 *169:160 *196:70 0
70 *180:58 *196:93 0.000192159
71 *181:46 *2262:A 0.000141734
72 *181:46 *196:44 0.000354511
73 *183:12 *196:14 0.000146644
74 *183:150 *196:14 0.000258
75 *183:150 *196:70 0.000635589
76 *186:36 *196:44 0
77 *187:20 *196:70 0.000114764
78 *187:20 *196:72 2.47753e-05
*RES
1 *2362:Q *196:10 23.3893 
2 *196:10 *196:14 19.1964 
3 *196:14 *196:16 42.4286 
4 *196:16 *196:18 8.75 
5 *196:18 *2256:A 22.9429 
6 *196:18 *411:DIODE 9.3 
7 *196:16 *196:44 25.8929 
8 *196:44 *424:DIODE 23.05 
9 *196:44 *2262:A 10.6571 
10 *196:10 *196:70 17.875 
11 *196:70 *196:72 1.35714 
12 *196:72 *2180:C 10.5679 
13 *196:72 *196:93 26.75 
14 *196:93 *196:95 4.5 
15 *196:95 *2257:A1 9.3 
16 *196:95 *413:DIODE 14.4964 
17 *196:93 *196:117 43.0536 
18 *196:117 *2258:A 15.1036 
19 *196:117 *416:DIODE 9.3 
20 *196:70 *232:DIODE 9.3 
*END

*D_NET *197 0.0295409
*CONN
*I *2263:A I *D sky130_fd_sc_hd__and3_1
*I *427:DIODE I *D sky130_fd_sc_hd__diode_2
*I *417:DIODE I *D sky130_fd_sc_hd__diode_2
*I *2258:B I *D sky130_fd_sc_hd__nand3_2
*I *2181:D_N I *D sky130_fd_sc_hd__or4b_1
*I *237:DIODE I *D sky130_fd_sc_hd__diode_2
*I *2257:B1 I *D sky130_fd_sc_hd__a21o_1
*I *415:DIODE I *D sky130_fd_sc_hd__diode_2
*I *2363:Q O *D sky130_fd_sc_hd__dfrtp_4
*CAP
1 *2263:A 0.000115083
2 *427:DIODE 0
3 *417:DIODE 0.000225388
4 *2258:B 2.28784e-05
5 *2181:D_N 3.42005e-05
6 *237:DIODE 2.59813e-05
7 *2257:B1 0.000153499
8 *415:DIODE 0
9 *2363:Q 0.00138623
10 *197:90 0.00140739
11 *197:68 0.00037302
12 *197:66 0.00171953
13 *197:46 0.000208741
14 *197:44 0.000873608
15 *197:24 0.000753352
16 *197:20 0.00295739
17 *197:18 0.00332118
18 *197:20 *2197:C 4.62425e-05
19 *197:20 *2292:B1 0
20 *197:20 *198:28 0
21 *197:20 *198:68 0
22 *197:20 *205:28 9.57137e-05
23 *197:20 *206:40 7.95603e-05
24 *197:20 *210:86 0.00184647
25 *197:20 *220:59 0
26 *197:20 *220:73 0
27 *197:44 *2181:B 0.000172069
28 *197:44 *2181:C 0.000183634
29 *197:44 *210:86 0.000904408
30 *197:46 *2181:B 5.49544e-05
31 *197:46 *2181:C 9.41642e-05
32 *197:66 *234:DIODE 0.000124012
33 *197:66 *198:68 5.51716e-05
34 *2188:B *197:20 9.65182e-05
35 *2258:A *417:DIODE 8.27238e-06
36 *2258:A *2258:B 0
37 *2258:A *197:68 3.63775e-05
38 *2258:C *197:68 9.71197e-05
39 *2258:C *197:90 0.000210223
40 *2263:C *2263:A 5.33005e-05
41 *2360:RESET_B *197:18 3.4855e-05
42 *2363:CLK *197:18 8.07313e-05
43 *2363:D *197:18 0.000106189
44 *2363:RESET_B *197:18 0.000225097
45 *2386:A *197:90 0.000221634
46 *19:12 *197:66 0.00020203
47 *26:18 *197:24 4.85033e-05
48 *34:12 *197:18 0.000370947
49 *55:10 *197:18 1.63096e-05
50 *55:14 *197:20 0.00328866
51 *55:20 *197:20 0.000225208
52 *93:10 *197:66 0.000500189
53 *97:24 *197:20 0.000157941
54 *97:24 *197:44 0.000169671
55 *144:24 *197:90 0.00186693
56 *144:26 *197:90 5.33005e-05
57 *144:37 *197:20 9.54385e-05
58 *144:37 *197:44 0.00105085
59 *144:43 *197:20 0.000103267
60 *146:16 *2257:B1 0.000260574
61 *146:16 *197:24 0.000477109
62 *147:8 *417:DIODE 5.33334e-05
63 *167:24 *2257:B1 0.000199365
64 *167:24 *197:24 0.00102064
65 *176:30 *197:90 0.000211444
66 *177:108 *2263:A 0.000135028
67 *177:108 *197:90 0.00025362
68 *181:194 *2263:A 3.19337e-05
69 *191:74 *197:20 0.000259586
70 *195:120 *237:DIODE 2.34612e-05
71 *195:120 *2181:D_N 1.02301e-05
72 *195:120 *197:46 5.11646e-05
*RES
1 *2363:Q *197:18 36.3089 
2 *197:18 *197:20 55.0446 
3 *197:20 *197:24 17.3571 
4 *197:24 *415:DIODE 9.3 
5 *197:24 *2257:B1 13.1393 
6 *197:20 *197:44 20.0536 
7 *197:44 *197:46 2.58929 
8 *197:46 *237:DIODE 9.83571 
9 *197:46 *2181:D_N 10.0321 
10 *197:44 *197:66 17.0179 
11 *197:66 *197:68 2.17857 
12 *197:68 *2258:B 9.72857 
13 *197:68 *417:DIODE 12.2107 
14 *197:66 *197:90 27.2679 
15 *197:90 *427:DIODE 9.3 
16 *197:90 *2263:A 11.4786 
*END

*D_NET *198 0.0287823
*CONN
*I *234:DIODE I *D sky130_fd_sc_hd__diode_2
*I *2181:A I *D sky130_fd_sc_hd__or4b_1
*I *426:DIODE I *D sky130_fd_sc_hd__diode_2
*I *2262:C I *D sky130_fd_sc_hd__and3_1
*I *422:DIODE I *D sky130_fd_sc_hd__diode_2
*I *2261:A I *D sky130_fd_sc_hd__xnor2_1
*I *2364:Q O *D sky130_fd_sc_hd__dfrtp_2
*CAP
1 *234:DIODE 0.000146667
2 *2181:A 0
3 *426:DIODE 0
4 *2262:C 0
5 *422:DIODE 0
6 *2261:A 0.000125875
7 *2364:Q 3.18762e-05
8 *198:68 0.00192377
9 *198:44 0.00195776
10 *198:30 0.00198211
11 *198:28 0.00124421
12 *198:14 0.0054505
13 *198:10 0.00261128
14 *198:10 *203:50 7.70035e-05
15 *198:14 *219:26 0.00030873
16 *198:28 *2292:B1 6.65445e-05
17 *198:28 *220:59 0.000307286
18 *198:28 *220:73 0.000140368
19 *198:68 *206:40 0.00117506
20 *198:68 *210:86 0
21 *2187:A *198:44 0
22 *2261:B *2261:A 0.000274392
23 *2261:B *198:44 0.000119114
24 *2262:A *198:44 0.00012835
25 *2337:A *198:28 0
26 *2373:D *198:14 0.00043541
27 *19:12 *234:DIODE 0.000115453
28 *19:12 *198:68 0.00163963
29 *56:18 *198:68 1.05603e-05
30 *70:12 *198:28 4.66203e-05
31 *74:10 *198:44 0
32 *97:24 *198:68 0.00013668
33 *115:34 *198:44 0.000402602
34 *122:35 *198:28 0.000125731
35 *126:22 *198:28 5.51819e-05
36 *141:26 *198:68 0.000179615
37 *143:20 *198:14 0.00024866
38 *149:32 *198:68 0.000302859
39 *162:8 *198:28 0
40 *169:44 *198:28 0
41 *169:125 *198:10 7.70035e-05
42 *171:66 *234:DIODE 0.000136733
43 *171:116 *198:14 0.00178857
44 *181:46 *198:28 2.59355e-05
45 *181:46 *198:30 0.000116518
46 *181:46 *198:44 0.000418712
47 *181:78 *198:28 0.000662725
48 *182:32 *198:28 0.000286773
49 *182:32 *198:68 0.00195129
50 *182:46 *198:28 8.50152e-05
51 *182:80 *198:68 0.000214166
52 *187:36 *198:44 0.000691805
53 *192:36 *198:68 2.1527e-05
54 *196:44 *198:44 0.000356428
55 *197:20 *198:28 0
56 *197:20 *198:68 0
57 *197:66 *234:DIODE 0.000124012
58 *197:66 *198:68 5.51716e-05
*RES
1 *2364:Q *198:10 19.3357 
2 *198:10 *198:14 38.7143 
3 *198:14 *198:28 33.4464 
4 *198:28 *198:30 2.10714 
5 *198:30 *198:44 38.9821 
6 *198:44 *2261:A 12.3 
7 *198:44 *422:DIODE 9.3 
8 *198:30 *2262:C 9.3 
9 *198:28 *426:DIODE 9.3 
10 *198:14 *198:68 50.5179 
11 *198:68 *2181:A 13.8 
12 *198:68 *234:DIODE 16.8 
*END

*D_NET *199 0.0345403
*CONN
*I *2266:A1 I *D sky130_fd_sc_hd__a21oi_2
*I *433:DIODE I *D sky130_fd_sc_hd__diode_2
*I *437:DIODE I *D sky130_fd_sc_hd__diode_2
*I *2267:B I *D sky130_fd_sc_hd__and3_1
*I *431:DIODE I *D sky130_fd_sc_hd__diode_2
*I *2265:A I *D sky130_fd_sc_hd__xor2_1
*I *236:DIODE I *D sky130_fd_sc_hd__diode_2
*I *2181:C I *D sky130_fd_sc_hd__or4b_1
*I *2270:B I *D sky130_fd_sc_hd__and4_1
*I *2271:B I *D sky130_fd_sc_hd__and4_1
*I *444:DIODE I *D sky130_fd_sc_hd__diode_2
*I *448:DIODE I *D sky130_fd_sc_hd__diode_2
*I *2365:Q O *D sky130_fd_sc_hd__dfrtp_4
*CAP
1 *2266:A1 4.37277e-05
2 *433:DIODE 0
3 *437:DIODE 0
4 *2267:B 0
5 *431:DIODE 0
6 *2265:A 0.000185377
7 *236:DIODE 0
8 *2181:C 0.000200655
9 *2270:B 0.000357182
10 *2271:B 0
11 *444:DIODE 0.000257953
12 *448:DIODE 0
13 *2365:Q 0
14 *199:142 0.00167919
15 *199:134 0.00264659
16 *199:122 0.00136942
17 *199:116 0.00030372
18 *199:112 0.0012532
19 *199:92 0.00279032
20 *199:82 0.00435877
21 *199:76 0.000629405
22 *199:74 0.000770284
23 *199:40 0.000490056
24 *199:14 0.000301556
25 *199:10 0.000300132
26 *199:4 0.000823792
27 *444:DIODE *204:28 7.45213e-05
28 *2181:C *2181:B 5.96516e-05
29 *2181:C *202:8 4.84159e-05
30 *2266:A1 *200:134 0.000183304
31 *2270:B *2270:C 3.30352e-05
32 *2270:B *2271:C 7.48335e-05
33 *2270:B *201:85 1.21258e-05
34 *2270:B *211:66 7.48301e-06
35 *199:10 *2271:A 4.42631e-05
36 *199:10 *204:28 0.000157928
37 *199:40 *2271:A 1.08528e-05
38 *199:40 *204:28 7.22909e-05
39 *199:82 *200:6 1.09678e-05
40 *199:82 *200:10 3.37609e-05
41 *199:92 *202:8 0.00014988
42 *199:92 *206:88 2.69729e-05
43 *199:112 *200:14 0.00109624
44 *199:112 *200:48 0.000126871
45 *199:112 *203:56 0.00158304
46 *199:116 *218:58 0.000181114
47 *199:122 *218:58 0.000437886
48 *199:134 *214:10 0
49 *345:DIODE *199:74 3.97677e-05
50 *434:DIODE *2266:A1 5.12625e-05
51 *438:DIODE *199:122 0.000265027
52 *2265:B *2265:A 0.00040015
53 *2366:CLK *199:82 1.21258e-05
54 *2366:CLK *199:92 4.25569e-05
55 *2368:CLK *199:92 5.4864e-05
56 *2368:D *199:92 1.83136e-05
57 *2368:RESET_B *199:92 9.82582e-05
58 *2373:RESET_B *199:112 0.00053589
59 *2374:RESET_B *199:134 0
60 *16:8 *199:134 0.000275231
61 *21:22 *2265:A 1.98839e-05
62 *21:24 *199:142 0.000245349
63 *28:20 *199:74 0.000122341
64 *31:24 *199:112 0.000547184
65 *33:26 *199:134 6.66287e-06
66 *34:8 *199:112 0.000260279
67 *42:24 *199:134 0.000150027
68 *84:12 *199:112 0.00050103
69 *106:68 *199:112 0.000974735
70 *106:88 *444:DIODE 0.000189747
71 *110:10 *199:74 0.000499221
72 *110:10 *199:76 7.22594e-05
73 *110:10 *199:82 0.00026695
74 *119:115 *2270:B 1.02936e-05
75 *119:115 *199:40 0.000182875
76 *128:12 *444:DIODE 0.00014051
77 *128:12 *199:14 5.33005e-05
78 *129:39 *2270:B 7.6997e-05
79 *135:16 *199:142 0.000393936
80 *141:58 *199:92 2.42526e-05
81 *141:92 *199:74 0.000476274
82 *151:22 *444:DIODE 9.60939e-05
83 *151:28 *2270:B 3.69047e-06
84 *151:39 *199:10 2.26791e-05
85 *151:39 *199:40 9.85424e-06
86 *151:92 *199:122 3.23206e-05
87 *151:92 *199:134 0.000323505
88 *151:121 *2266:A1 5.28427e-05
89 *153:20 *199:134 0.000262757
90 *154:8 *2270:B 2.59355e-05
91 *154:10 *2270:B 4.15914e-05
92 *155:14 *2270:B 1.32056e-05
93 *156:91 *199:134 0
94 *171:92 *199:142 0.000243627
95 *177:52 *199:92 9.16162e-05
96 *177:68 *199:92 5.54811e-05
97 *177:157 *199:10 2.84109e-05
98 *177:157 *199:74 6.05023e-05
99 *181:78 *199:142 0.00146012
100 *186:117 *199:74 0.000181923
101 *186:117 *199:76 2.88424e-05
102 *186:117 *199:82 8.74074e-05
103 *195:120 *2181:C 0.000282646
104 *195:120 *199:92 7.25873e-06
105 *196:14 *199:134 0.000655821
106 *197:44 *2181:C 0.000183634
107 *197:46 *2181:C 9.41642e-05
*RES
1 *2365:Q *199:4 9.3 
2 *199:4 *199:10 7.28571 
3 *199:10 *199:14 5.03571 
4 *199:14 *448:DIODE 9.3 
5 *199:14 *444:DIODE 23.1571 
6 *199:10 *199:40 7.30357 
7 *199:40 *2271:B 9.3 
8 *199:40 *2270:B 24.1393 
9 *199:4 *199:74 18.25 
10 *199:74 *199:76 1.03571 
11 *199:76 *199:82 13.4286 
12 *199:82 *199:92 40.6786 
13 *199:92 *2181:C 14.7643 
14 *199:92 *236:DIODE 9.3 
15 *199:82 *199:112 45.7679 
16 *199:112 *199:116 6.26786 
17 *199:116 *199:122 5.60714 
18 *199:122 *199:134 33.7321 
19 *199:134 *199:142 32 
20 *199:142 *2265:A 13.5321 
21 *199:142 *431:DIODE 9.3 
22 *199:122 *2267:B 9.3 
23 *199:116 *437:DIODE 9.3 
24 *199:76 *433:DIODE 13.8 
25 *199:74 *2266:A1 15.5679 
*END

*D_NET *200 0.0252289
*CONN
*I *2266:B1 I *D sky130_fd_sc_hd__a21oi_2
*I *435:DIODE I *D sky130_fd_sc_hd__diode_2
*I *2270:A I *D sky130_fd_sc_hd__and4_1
*I *443:DIODE I *D sky130_fd_sc_hd__diode_2
*I *447:DIODE I *D sky130_fd_sc_hd__diode_2
*I *2271:A I *D sky130_fd_sc_hd__and4_1
*I *235:DIODE I *D sky130_fd_sc_hd__diode_2
*I *2181:B I *D sky130_fd_sc_hd__or4b_1
*I *436:DIODE I *D sky130_fd_sc_hd__diode_2
*I *2267:A I *D sky130_fd_sc_hd__and3_1
*I *2366:Q O *D sky130_fd_sc_hd__dfrtp_2
*CAP
1 *2266:B1 0
2 *435:DIODE 0.00020719
3 *2270:A 0.000208642
4 *443:DIODE 9.26863e-05
5 *447:DIODE 3.92359e-05
6 *2271:A 0.000142487
7 *235:DIODE 0
8 *2181:B 0.000295966
9 *436:DIODE 7.37066e-05
10 *2267:A 0.000247003
11 *2366:Q 0.000394496
12 *200:134 0.000511016
13 *200:106 0.000473727
14 *200:95 0.000281934
15 *200:78 0.000648948
16 *200:72 0.000893665
17 *200:48 0.00261646
18 *200:14 0.00153154
19 *200:10 0.00394108
20 *200:6 0.000957922
21 *2267:A *218:58 4.4873e-05
22 *2270:A *211:66 1.5424e-05
23 *200:14 *466:DIODE 0.000166093
24 *200:14 *203:50 0.000216753
25 *200:14 *204:30 0.000841903
26 *200:14 *211:38 1.9774e-05
27 *200:48 *2202:A 0.000178503
28 *200:48 *202:94 9.02649e-06
29 *200:48 *204:30 0.000185694
30 *434:DIODE *435:DIODE 0.000136682
31 *434:DIODE *200:134 5.19805e-05
32 *2181:C *2181:B 5.96516e-05
33 *2202:B *200:48 2.84109e-05
34 *2266:A1 *200:134 0.000183304
35 *2266:A2 *435:DIODE 0
36 *2287:B *200:78 0.000153054
37 *2331:A *200:48 5.33005e-05
38 *2347:D *200:14 0.000380634
39 *2354:D *200:14 0.000522214
40 *2366:CLK *200:10 4.58194e-05
41 *2373:RESET_B *200:14 0.000976172
42 *37:12 *200:48 8.43535e-06
43 *41:24 *200:72 0.000482498
44 *65:12 *2270:A 0
45 *65:12 *200:106 0
46 *65:18 *200:72 0.000252003
47 *65:18 *200:106 0
48 *66:24 *200:72 0.000116627
49 *77:8 *436:DIODE 0.000126572
50 *77:8 *2267:A 0.0003939
51 *84:12 *200:14 0.000256852
52 *106:62 *200:48 0.00129048
53 *106:68 *200:48 3.33175e-05
54 *106:88 *2270:A 1.75989e-05
55 *106:88 *200:78 6.57424e-05
56 *106:88 *200:95 4.56594e-05
57 *106:88 *200:106 8.67957e-05
58 *118:28 *2181:B 0.000126141
59 *118:28 *200:48 9.02356e-05
60 *128:12 *447:DIODE 5.52238e-05
61 *128:20 *200:14 0
62 *141:92 *200:78 0.00028855
63 *144:16 *2271:A 0.000394131
64 *151:22 *443:DIODE 0.000142856
65 *151:22 *2270:A 0.000223546
66 *151:28 *2270:A 8.28852e-05
67 *151:39 *2271:A 0.000122006
68 *151:121 *200:78 0.000105514
69 *151:121 *200:134 3.2687e-05
70 *171:66 *2181:B 0.000126141
71 *171:66 *200:48 0.000130707
72 *177:157 *2271:A 0.000395772
73 *179:30 *200:78 8.16036e-05
74 *179:54 *200:78 0.000128941
75 *184:144 *2270:A 0.000139907
76 *195:132 *2270:A 8.6229e-06
77 *197:44 *2181:B 0.000172069
78 *197:46 *2181:B 5.49544e-05
79 *199:10 *2271:A 4.42631e-05
80 *199:40 *2271:A 1.08528e-05
81 *199:82 *200:6 1.09678e-05
82 *199:82 *200:10 3.37609e-05
83 *199:112 *200:14 0.00109624
84 *199:112 *200:48 0.000126871
*RES
1 *2366:Q *200:6 13.5321 
2 *200:6 *200:10 9.14286 
3 *200:10 *200:14 42.2679 
4 *200:14 *2267:A 13.9429 
5 *200:14 *436:DIODE 10.6571 
6 *200:10 *200:48 46.1786 
7 *200:48 *2181:B 18.8536 
8 *200:48 *235:DIODE 13.8 
9 *200:6 *200:72 15.1964 
10 *200:72 *200:78 14.9107 
11 *200:78 *2271:A 28.2643 
12 *200:78 *200:95 1.33929 
13 *200:95 *447:DIODE 14.3357 
14 *200:95 *200:106 2.55357 
15 *200:106 *443:DIODE 15.1571 
16 *200:106 *2270:A 18.4964 
17 *200:72 *200:134 5.07143 
18 *200:134 *435:DIODE 12.7286 
19 *200:134 *2266:B1 9.3 
*END

*D_NET *201 0.027509
*CONN
*I *2269:A I *D sky130_fd_sc_hd__xor2_1
*I *2270:C I *D sky130_fd_sc_hd__and4_1
*I *2271:D I *D sky130_fd_sc_hd__and4_1
*I *450:DIODE I *D sky130_fd_sc_hd__diode_2
*I *445:DIODE I *D sky130_fd_sc_hd__diode_2
*I *441:DIODE I *D sky130_fd_sc_hd__diode_2
*I *2184:B I *D sky130_fd_sc_hd__or3_2
*I *243:DIODE I *D sky130_fd_sc_hd__diode_2
*I *2367:Q O *D sky130_fd_sc_hd__dfrtp_2
*CAP
1 *2269:A 1.50833e-05
2 *2270:C 4.07207e-05
3 *2271:D 8.21488e-05
4 *450:DIODE 0
5 *445:DIODE 0
6 *441:DIODE 2.86685e-05
7 *2184:B 0
8 *243:DIODE 0
9 *2367:Q 0.000720794
10 *201:85 0.000157121
11 *201:78 0.000106205
12 *201:71 0.00113667
13 *201:69 0.002566
14 *201:65 0.00184778
15 *201:54 0.000513746
16 *201:48 0.000529938
17 *201:31 0.000653719
18 *201:22 0.000757641
19 *201:16 0.00120099
20 *2270:C *211:66 9.90431e-05
21 *2271:D *204:28 1.7382e-06
22 *201:31 *242:DIODE 8.56851e-05
23 *201:31 *202:44 0.000103783
24 *201:48 *202:44 5.02242e-05
25 *201:69 *209:142 6.60111e-05
26 *201:71 *211:66 0.00201601
27 *201:71 *211:70 1.51571e-05
28 *201:71 *216:8 0.000268291
29 *201:78 *211:66 0.000228905
30 *201:85 *211:66 0.000139202
31 *360:DIODE *201:48 0.000219711
32 *380:DIODE *201:22 8.33968e-05
33 *380:DIODE *201:31 5.33005e-05
34 *492:DIODE *201:71 1.58163e-05
35 *2234:A *201:48 2.14658e-05
36 *2234:B *201:54 0
37 *2247:A *201:69 0.000197622
38 *2270:B *2270:C 3.30352e-05
39 *2270:B *201:85 1.21258e-05
40 *2296:A1 *201:16 0.000267731
41 *2296:B1 *201:16 0.000127246
42 *2345:D *201:69 0.00223675
43 *2359:CLK *201:48 0.000135028
44 *2359:D *2269:A 5.33005e-05
45 *2359:D *201:48 6.59138e-05
46 *2359:RESET_B *441:DIODE 0.000185394
47 *2359:RESET_B *201:65 0.000710706
48 *17:10 *201:16 0.000524955
49 *17:22 *201:16 0.000115649
50 *21:36 *201:71 7.49104e-05
51 *27:14 *201:65 0.000210164
52 *74:10 *201:48 9.96264e-05
53 *82:12 *201:69 0.000296613
54 *88:12 *201:22 0.000766962
55 *96:46 *201:69 0.000704234
56 *99:27 *201:65 9.60875e-05
57 *101:24 *201:69 0.000280954
58 *105:24 *201:48 9.80405e-05
59 *116:48 *2269:A 1.47972e-05
60 *116:48 *201:48 6.00892e-05
61 *129:39 *2271:D 0.000142356
62 *131:16 *201:48 0.00012788
63 *131:42 *201:48 9.60939e-05
64 *138:28 *201:69 0.000316672
65 *140:14 *201:16 0.000738272
66 *142:14 *201:16 0.000818965
67 *145:10 *201:69 0
68 *151:28 *2270:C 3.27961e-05
69 *151:39 *2271:D 3.50847e-05
70 *152:36 *201:69 0.000380963
71 *153:55 *201:48 1.17091e-05
72 *154:8 *201:78 5.49544e-05
73 *154:8 *201:85 8.51331e-05
74 *167:44 *201:16 0.000269436
75 *167:48 *201:16 3.06406e-05
76 *169:176 *201:22 0.000270626
77 *172:62 *441:DIODE 0.000185394
78 *172:62 *201:65 0.000699325
79 *184:20 *201:71 0.00183388
80 *186:30 *201:54 0.000185944
81 *188:22 *201:54 0
*RES
1 *2367:Q *201:16 46.5857 
2 *201:16 *201:22 16.0357 
3 *201:22 *243:DIODE 9.3 
4 *201:22 *201:31 4.66071 
5 *201:31 *2184:B 9.3 
6 *201:31 *201:48 17.4821 
7 *201:48 *201:54 11.5536 
8 *201:54 *441:DIODE 11.0679 
9 *201:54 *201:65 15.7143 
10 *201:65 *201:69 48.3393 
11 *201:69 *201:71 30.9286 
12 *201:71 *445:DIODE 9.3 
13 *201:71 *201:78 2.17857 
14 *201:78 *450:DIODE 9.3 
15 *201:78 *201:85 1.35714 
16 *201:85 *2271:D 20.2464 
17 *201:85 *2270:C 10.675 
18 *201:48 *2269:A 9.83571 
*END

*D_NET *202 0.031239
*CONN
*I *2271:C I *D sky130_fd_sc_hd__and4_1
*I *449:DIODE I *D sky130_fd_sc_hd__diode_2
*I *452:DIODE I *D sky130_fd_sc_hd__diode_2
*I *2273:A1 I *D sky130_fd_sc_hd__o21ba_1
*I *2184:A I *D sky130_fd_sc_hd__or3_2
*I *242:DIODE I *D sky130_fd_sc_hd__diode_2
*I *2368:Q O *D sky130_fd_sc_hd__dfrtp_1
*CAP
1 *2271:C 8.75885e-05
2 *449:DIODE 0
3 *452:DIODE 0
4 *2273:A1 0.00031194
5 *2184:A 0
6 *242:DIODE 7.17716e-05
7 *2368:Q 0.000312442
8 *202:96 0.000272976
9 *202:94 0.00207168
10 *202:62 0.00150018
11 *202:44 0.00210804
12 *202:24 0.00413034
13 *202:8 0.00310457
14 *2273:A1 *205:58 1.25366e-05
15 *202:24 *300:DIODE 9.41642e-05
16 *202:62 *313:DIODE 0.000139907
17 *202:62 *205:58 0.000270696
18 *202:62 *218:50 6.32026e-05
19 *472:DIODE *202:94 7.83659e-05
20 *472:DIODE *202:96 0.000392026
21 *2181:C *202:8 4.84159e-05
22 *2234:B *202:44 9.58181e-05
23 *2270:B *2271:C 7.48335e-05
24 *2273:A2 *2273:A1 5.38711e-05
25 *2330:A *202:44 0.000188848
26 *17:28 *2273:A1 7.74068e-05
27 *21:24 *202:24 0.000812214
28 *39:24 *202:62 0.000221359
29 *60:10 *202:24 0.000119291
30 *60:10 *202:94 0.0010436
31 *60:12 *202:24 0.00126993
32 *63:12 *202:94 0.000168147
33 *80:16 *202:62 0.000642087
34 *94:20 *202:24 0.000812214
35 *96:14 *242:DIODE 9.60939e-05
36 *96:14 *202:44 0.000144044
37 *113:18 *202:62 3.59062e-05
38 *113:30 *202:44 0.000298483
39 *113:30 *202:62 0.000691955
40 *117:26 *202:24 0.00120897
41 *118:28 *202:94 0.000211034
42 *119:38 *202:24 0.000218454
43 *119:115 *2271:C 0.000219929
44 *119:115 *202:96 0.000745292
45 *123:18 *202:44 0.00010326
46 *130:52 *202:44 0.00189847
47 *132:18 *2273:A1 0.000101915
48 *132:18 *202:62 0.000840188
49 *134:103 *202:62 0.000218128
50 *138:26 *202:24 0.000132592
51 *144:16 *202:94 0.000180777
52 *155:14 *2271:C 9.83442e-05
53 *155:14 *202:94 1.01075e-05
54 *155:14 *202:96 0.00012993
55 *167:28 *202:44 0.000101545
56 *171:66 *202:24 0.0001773
57 *171:66 *202:94 0.00018503
58 *171:86 *202:24 0.000153094
59 *177:136 *202:94 7.6644e-05
60 *182:136 *202:94 0.0016764
61 *185:78 *202:94 6.88463e-06
62 *189:22 *2273:A1 0.000229193
63 *199:92 *202:8 0.00014988
64 *200:48 *202:94 9.02649e-06
65 *201:31 *242:DIODE 8.56851e-05
66 *201:31 *202:44 0.000103783
67 *201:48 *202:44 5.02242e-05
*RES
1 *2368:Q *202:8 17.6214 
2 *202:8 *202:24 45.4286 
3 *202:24 *202:44 39.6429 
4 *202:44 *242:DIODE 11.0679 
5 *202:44 *2184:A 9.3 
6 *202:24 *202:62 31.6964 
7 *202:62 *2273:A1 19.8 
8 *202:62 *452:DIODE 13.8 
9 *202:8 *202:94 47.2321 
10 *202:94 *202:96 7.10714 
11 *202:96 *449:DIODE 9.3 
12 *202:96 *2271:C 12.3357 
*END

*D_NET *203 0.0483412
*CONN
*I *467:DIODE I *D sky130_fd_sc_hd__diode_2
*I *2280:B I *D sky130_fd_sc_hd__and4_1
*I *460:DIODE I *D sky130_fd_sc_hd__diode_2
*I *2277:B I *D sky130_fd_sc_hd__nand3_2
*I *245:DIODE I *D sky130_fd_sc_hd__diode_2
*I *2185:A I *D sky130_fd_sc_hd__or3_1
*I *456:DIODE I *D sky130_fd_sc_hd__diode_2
*I *2275:A I *D sky130_fd_sc_hd__nor2_1
*I *319:DIODE I *D sky130_fd_sc_hd__diode_2
*I *2218:A I *D sky130_fd_sc_hd__or4b_1
*I *454:DIODE I *D sky130_fd_sc_hd__diode_2
*I *2274:A I *D sky130_fd_sc_hd__and2_1
*I *2369:Q O *D sky130_fd_sc_hd__dfrtp_4
*CAP
1 *467:DIODE 0
2 *2280:B 0.000129724
3 *460:DIODE 0
4 *2277:B 4.90667e-05
5 *245:DIODE 0
6 *2185:A 7.24594e-05
7 *456:DIODE 0.000117813
8 *2275:A 0
9 *319:DIODE 0
10 *2218:A 0.000206348
11 *454:DIODE 0
12 *2274:A 0.000102335
13 *2369:Q 0.0013607
14 *203:120 0.000834893
15 *203:118 0.002062
16 *203:103 0.00145487
17 *203:96 0.000762527
18 *203:78 0.00116425
19 *203:74 0.00236697
20 *203:68 0.00109633
21 *203:66 0.000873246
22 *203:58 0.00096321
23 *203:56 0.000936272
24 *203:50 0.00242591
25 *203:26 0.00116382
26 *203:20 0.00221847
27 *203:12 0.00433079
28 *2218:A *321:DIODE 0.000125547
29 *2218:A *209:22 9.90367e-05
30 *2218:A *209:24 5.71472e-05
31 *2218:A *211:78 0.000230475
32 *2277:B *204:63 5.87643e-05
33 *203:20 *279:DIODE 0.00015455
34 *203:20 *208:66 8.43535e-06
35 *203:26 *2284:A 0.000184503
36 *203:26 *208:66 0.00194593
37 *203:26 *220:59 0.00022887
38 *203:56 *2392:A 6.28241e-05
39 *203:58 *2392:A 0.000150723
40 *203:66 *2392:A 0.00015502
41 *203:68 *204:63 7.72408e-05
42 *203:74 *2277:A 2.59355e-05
43 *203:74 *204:63 5.42547e-05
44 *203:74 *208:32 6.79966e-05
45 *203:78 *206:46 0.000976334
46 *203:78 *208:6 0.000128496
47 *203:78 *208:14 9.60875e-05
48 *203:96 *208:32 6.8646e-06
49 *203:118 *205:94 0
50 *383:DIODE *203:12 0.000123924
51 *461:DIODE *203:68 4.58194e-05
52 *522:DIODE *203:78 0.000223891
53 *2185:B *2185:A 0.000188586
54 *2185:B *203:120 0.000172309
55 *2185:C *2185:A 5.71472e-05
56 *2238:D *2280:B 5.33005e-05
57 *2274:B *2274:A 0.000108123
58 *2274:B *203:26 9.54004e-05
59 *2275:B *456:DIODE 5.52238e-05
60 *2275:B *203:103 4.13595e-05
61 *2280:D *2280:B 7.70035e-05
62 *2293:A *203:118 4.61703e-05
63 *2299:A1 *203:78 0.00022266
64 *2299:A2 *203:74 0.000259225
65 *2362:D *203:50 4.38244e-05
66 *2373:RESET_B *203:50 0.000316648
67 *16:8 *203:66 0.000137187
68 *30:16 *203:50 0.000527044
69 *31:24 *203:56 0.000285711
70 *33:26 *203:50 1.07719e-05
71 *34:8 *203:50 0
72 *34:8 *203:56 0.00158
73 *55:20 *203:78 0.000472897
74 *92:8 *203:74 0.000718585
75 *92:8 *203:96 0.0016309
76 *92:8 *203:118 0.000944179
77 *95:46 *203:118 0
78 *95:46 *203:120 0.000601578
79 *119:24 *203:96 0
80 *119:87 *203:96 0.000353001
81 *129:22 *203:118 9.52246e-05
82 *130:38 *203:118 0.000242994
83 *134:173 *203:118 0
84 *135:16 *203:12 7.69499e-05
85 *151:55 *2280:B 0.000150803
86 *151:69 *203:50 0
87 *154:10 *2280:B 4.06782e-05
88 *156:14 *456:DIODE 9.41642e-05
89 *156:49 *203:68 4.58194e-05
90 *156:91 *203:20 0.000313215
91 *156:101 *203:20 0.000135028
92 *156:101 *203:26 0.00164725
93 *156:140 *203:66 6.88294e-06
94 *157:29 *203:26 0.00136337
95 *158:22 *203:96 2.11419e-05
96 *162:20 *203:96 0.000216304
97 *166:90 *203:118 0.00032927
98 *169:125 *203:50 7.89497e-05
99 *171:66 *203:78 0.000216755
100 *171:135 *203:50 0
101 *175:86 *203:50 0
102 *175:90 *203:50 0
103 *179:82 *203:12 0.000443618
104 *179:82 *203:20 0.000341614
105 *179:84 *203:20 0.000173587
106 *179:100 *203:20 0.000546149
107 *181:142 *2218:A 0.000216304
108 *181:142 *203:78 0.000206274
109 *182:18 *203:74 3.52519e-05
110 *182:136 *456:DIODE 0.000136476
111 *182:136 *203:103 4.58194e-05
112 *183:150 *203:66 0.000265025
113 *185:78 *203:118 0
114 *198:10 *203:50 7.70035e-05
115 *199:112 *203:56 0.00158304
116 *200:14 *203:50 0.000216753
*RES
1 *2369:Q *203:12 36.1929 
2 *203:12 *203:20 18.25 
3 *203:20 *203:26 40.4107 
4 *203:26 *2274:A 11.4964 
5 *203:26 *454:DIODE 9.3 
6 *203:12 *203:50 46.4643 
7 *203:50 *203:56 26.7321 
8 *203:56 *203:58 4.23214 
9 *203:58 *203:66 17.5179 
10 *203:66 *203:68 4.23214 
11 *203:68 *203:74 17.8571 
12 *203:74 *203:78 26.3929 
13 *203:78 *2218:A 15.1929 
14 *203:78 *319:DIODE 9.3 
15 *203:74 *203:96 25.875 
16 *203:96 *2275:A 9.3 
17 *203:96 *203:103 0.946429 
18 *203:103 *456:DIODE 11.9071 
19 *203:103 *203:118 35.8393 
20 *203:118 *203:120 16.5536 
21 *203:120 *2185:A 11.4786 
22 *203:120 *245:DIODE 9.3 
23 *203:68 *2277:B 10.5679 
24 *203:66 *460:DIODE 9.3 
25 *203:58 *2280:B 21.3893 
26 *203:56 *467:DIODE 9.3 
*END

*D_NET *204 0.0342296
*CONN
*I *2280:A I *D sky130_fd_sc_hd__and4_1
*I *459:DIODE I *D sky130_fd_sc_hd__diode_2
*I *244:DIODE I *D sky130_fd_sc_hd__diode_2
*I *2184:C I *D sky130_fd_sc_hd__or3_2
*I *462:DIODE I *D sky130_fd_sc_hd__diode_2
*I *2278:A1 I *D sky130_fd_sc_hd__o21a_1
*I *2277:A I *D sky130_fd_sc_hd__nand3_2
*I *466:DIODE I *D sky130_fd_sc_hd__diode_2
*I *2370:Q O *D sky130_fd_sc_hd__dfrtp_4
*CAP
1 *2280:A 0
2 *459:DIODE 0
3 *244:DIODE 0
4 *2184:C 9.84902e-05
5 *462:DIODE 0
6 *2278:A1 0.000315324
7 *2277:A 2.3932e-05
8 *466:DIODE 0.000245437
9 *2370:Q 0.00104779
10 *204:112 0.000133127
11 *204:108 0.0021133
12 *204:82 0.00132112
13 *204:76 0.00357828
14 *204:63 0.000784131
15 *204:57 0.000822205
16 *204:45 0.000669771
17 *204:30 0.00101003
18 *204:28 0.00293063
19 *204:8 0.00332778
20 *466:DIODE *2392:A 9.71601e-05
21 *204:28 *209:111 7.83659e-05
22 *204:57 *2280:C 6.96878e-05
23 *204:76 *221:10 0.000146254
24 *204:82 *208:38 0
25 *444:DIODE *204:28 7.45213e-05
26 *461:DIODE *204:63 8.17274e-05
27 *463:DIODE *2278:A1 0.000215102
28 *2238:B *466:DIODE 0
29 *2238:B *204:45 0.000226867
30 *2238:C *204:45 1.38323e-05
31 *2238:C *204:57 2.59355e-05
32 *2238:D *204:57 2.18902e-05
33 *2270:D *204:28 4.53446e-05
34 *2271:D *204:28 1.7382e-06
35 *2277:B *204:63 5.87643e-05
36 *2278:A2 *2278:A1 5.71472e-05
37 *2281:B *204:57 0.000181796
38 *2283:A *204:57 2.84026e-05
39 *2352:D *204:28 0.000514767
40 *2370:CLK *204:8 0.00010096
41 *2370:D *204:8 0.00021932
42 *18:10 *2184:C 0.000149911
43 *48:8 *2184:C 0.000177545
44 *48:8 *204:112 0.000136676
45 *56:16 *204:28 2.46369e-06
46 *74:10 *2184:C 0.000148196
47 *96:14 *204:108 0.00157842
48 *104:20 *204:28 0.000807041
49 *106:68 *204:30 6.14842e-06
50 *106:88 *204:28 3.84726e-06
51 *113:32 *2184:C 0.000179469
52 *113:32 *204:112 0.0001254
53 *115:70 *204:57 0.000243384
54 *120:18 *204:108 9.91086e-05
55 *126:20 *2278:A1 4.87953e-05
56 *126:20 *204:82 1.55953e-05
57 *127:26 *204:28 0.000759083
58 *128:20 *466:DIODE 0
59 *129:39 *204:28 9.47537e-07
60 *130:38 *204:76 0.000169095
61 *130:52 *204:108 0.00111659
62 *133:16 *466:DIODE 9.59532e-06
63 *134:103 *204:108 4.58194e-05
64 *151:22 *204:28 3.38965e-05
65 *151:39 *204:28 0
66 *151:55 *204:28 0
67 *151:55 *204:30 0
68 *151:55 *204:45 5.49544e-05
69 *151:55 *204:57 9.41642e-05
70 *153:20 *204:82 8.54445e-05
71 *153:22 *204:108 0.000267731
72 *154:10 *204:57 0
73 *156:49 *204:63 9.58632e-05
74 *159:24 *2278:A1 0.0001399
75 *161:10 *204:57 0.000543026
76 *166:64 *204:82 9.87534e-05
77 *166:66 *204:76 0.000390267
78 *166:66 *204:82 0.000475629
79 *169:160 *204:57 2.53112e-06
80 *175:64 *204:82 0.000645643
81 *180:58 *204:76 0.000298521
82 *182:14 *204:57 4.49306e-05
83 *182:14 *204:63 0.000389734
84 *182:18 *2277:A 2.59355e-05
85 *182:18 *204:63 0.000293946
86 *184:144 *204:28 4.06087e-07
87 *185:84 *204:108 0.000100831
88 *190:44 *204:82 0
89 *191:98 *204:82 0.00173359
90 *194:20 *204:76 3.39401e-05
91 *194:20 *204:82 0.000102414
92 *196:93 *204:76 0.000192159
93 *199:10 *204:28 0.000157928
94 *199:40 *204:28 7.22909e-05
95 *200:14 *466:DIODE 0.000166093
96 *200:14 *204:30 0.000841903
97 *200:48 *204:30 0.000185694
98 *203:68 *204:63 7.72408e-05
99 *203:74 *2277:A 2.59355e-05
100 *203:74 *204:63 5.42547e-05
*RES
1 *2370:Q *204:8 32.8179 
2 *204:8 *204:28 44.6696 
3 *204:28 *204:30 13.9375 
4 *204:30 *466:DIODE 17.8179 
5 *204:30 *204:45 7.08929 
6 *204:45 *204:57 22.3214 
7 *204:57 *204:63 7.66071 
8 *204:63 *2277:A 9.83571 
9 *204:63 *204:76 17.6071 
10 *204:76 *204:82 31.7857 
11 *204:82 *2278:A1 15.8 
12 *204:82 *462:DIODE 9.3 
13 *204:76 *204:108 48.2857 
14 *204:108 *204:112 5.85714 
15 *204:112 *2184:C 22.0143 
16 *204:112 *244:DIODE 9.3 
17 *204:57 *459:DIODE 9.3 
18 *204:45 *2280:A 9.3 
*END

*D_NET *205 0.0298487
*CONN
*I *2196:A I *D sky130_fd_sc_hd__xnor2_1
*I *270:DIODE I *D sky130_fd_sc_hd__diode_2
*I *240:DIODE I *D sky130_fd_sc_hd__diode_2
*I *2183:C I *D sky130_fd_sc_hd__or4_2
*I *278:DIODE I *D sky130_fd_sc_hd__diode_2
*I *2199:A3 I *D sky130_fd_sc_hd__a31o_1
*I *2197:C I *D sky130_fd_sc_hd__and4_1
*I *274:DIODE I *D sky130_fd_sc_hd__diode_2
*I *2343:Q O *D sky130_fd_sc_hd__dfrtp_4
*CAP
1 *2196:A 0.000195319
2 *270:DIODE 0
3 *240:DIODE 0
4 *2183:C 0.000287005
5 *278:DIODE 0
6 *2199:A3 0
7 *2197:C 0.000500186
8 *274:DIODE 0
9 *2343:Q 6.90712e-05
10 *205:94 0.00128667
11 *205:70 0.00044907
12 *205:68 0.00230614
13 *205:58 0.00266082
14 *205:28 0.000973863
15 *205:22 0.00082996
16 *205:14 0.00103339
17 *205:8 0.00235427
18 *2183:C *241:DIODE 0.000268042
19 *2197:C *2197:D 0.000484511
20 *2197:C *220:59 0.000119458
21 *205:8 *220:36 0.000137983
22 *205:14 *2199:B1 0
23 *205:28 *220:59 0.000144139
24 *205:58 *218:50 6.50395e-05
25 *205:68 *215:10 1.3232e-05
26 *205:70 *241:DIODE 0.000137639
27 *276:DIODE *205:22 0.000332626
28 *276:DIODE *205:28 5.33005e-05
29 *337:DIODE *205:94 9.22948e-05
30 *2196:B *205:94 0
31 *2238:D *205:58 2.68929e-05
32 *2273:A1 *205:58 1.25366e-05
33 *2374:D *205:58 0.000283683
34 *2383:A *205:68 1.80461e-05
35 *17:28 *205:58 0.000160074
36 *21:22 *2197:C 3.98399e-05
37 *34:12 *205:14 4.88637e-05
38 *34:12 *205:22 0.000122159
39 *40:18 *205:28 0.000277453
40 *51:22 *205:28 0.000750018
41 *103:34 *205:94 0
42 *119:163 *205:94 0.000195856
43 *119:174 *205:94 4.44838e-05
44 *119:185 *205:94 0.00041411
45 *130:38 *205:68 0.000377838
46 *130:46 *205:58 0.000166973
47 *130:52 *205:58 0.000593116
48 *134:103 *205:58 0.000936951
49 *134:105 *205:58 0.000244869
50 *134:159 *205:58 2.70899e-05
51 *134:159 *205:68 0.000137678
52 *135:16 *205:14 0.000403392
53 *144:24 *205:68 0.000430429
54 *156:14 *205:68 0.000998688
55 *156:38 *205:58 0.000700133
56 *156:38 *205:68 0.000192933
57 *156:42 *205:58 0.000432978
58 *156:91 *205:14 0.00018953
59 *156:91 *205:58 0.000356427
60 *170:129 *2183:C 2.83425e-05
61 *170:129 *205:70 2.83425e-05
62 *170:129 *205:94 4.41588e-05
63 *171:92 *205:28 0.000658303
64 *179:100 *205:14 0
65 *179:106 *205:28 0.0001587
66 *180:58 *205:58 0.000515469
67 *180:67 *205:58 0.000173083
68 *180:82 *205:58 0.000215448
69 *180:107 *205:68 0
70 *185:14 *205:68 8.60628e-05
71 *185:78 *205:68 0.000308701
72 *185:78 *205:94 0.00060992
73 *190:118 *205:58 9.60808e-05
74 *194:20 *205:58 1.34436e-05
75 *194:41 *205:58 0.000243523
76 *194:47 *205:14 0.000292984
77 *194:47 *205:58 0.00114971
78 *194:49 *205:14 2.17476e-05
79 *194:55 *205:14 3.54498e-05
80 *194:73 *205:22 5.36422e-05
81 *194:73 *205:28 0.0013259
82 *194:95 *205:28 0
83 *197:20 *2197:C 4.62425e-05
84 *197:20 *205:28 9.57137e-05
85 *202:62 *205:58 0.000270696
86 *203:118 *205:94 0
*RES
1 *2343:Q *205:8 15.1571 
2 *205:8 *205:14 19.2321 
3 *205:14 *205:22 14.875 
4 *205:22 *205:28 25.0179 
5 *205:28 *274:DIODE 13.8 
6 *205:28 *2197:C 21.7286 
7 *205:22 *2199:A3 9.3 
8 *205:14 *278:DIODE 9.3 
9 *205:8 *205:58 51.5804 
10 *205:58 *205:68 31.8839 
11 *205:68 *205:70 2.17857 
12 *205:70 *2183:C 13.4429 
13 *205:70 *240:DIODE 9.3 
14 *205:68 *205:94 31.2679 
15 *205:94 *270:DIODE 9.3 
16 *205:94 *2196:A 12.6214 
*END

*D_NET *206 0.026316
*CONN
*I *2183:B I *D sky130_fd_sc_hd__or4_2
*I *239:DIODE I *D sky130_fd_sc_hd__diode_2
*I *468:DIODE I *D sky130_fd_sc_hd__diode_2
*I *2280:C I *D sky130_fd_sc_hd__and4_1
*I *464:DIODE I *D sky130_fd_sc_hd__diode_2
*I *2279:A I *D sky130_fd_sc_hd__xnor2_1
*I *2371:Q O *D sky130_fd_sc_hd__dfrtp_2
*CAP
1 *2183:B 0.000235067
2 *239:DIODE 0
3 *468:DIODE 0
4 *2280:C 0.000106484
5 *464:DIODE 0
6 *2279:A 0.000239506
7 *2371:Q 0
8 *206:88 0.00190079
9 *206:56 0.00154806
10 *206:46 0.00382988
11 *206:40 0.00227634
12 *206:14 0.00152433
13 *206:4 0.00283858
14 *2183:B *2183:A 8.16995e-05
15 *2280:C *216:12 5.64168e-05
16 *206:14 *213:50 7.70035e-05
17 *206:40 *210:86 0.000907248
18 *206:56 *216:12 9.0573e-05
19 *262:DIODE *206:40 0.000221065
20 *2189:A *206:88 0
21 *2238:D *2280:C 0.000394744
22 *2256:B *2279:A 7.25873e-06
23 *2279:B *2279:A 0.000145076
24 *2279:B *206:14 3.84968e-05
25 *2281:B *2280:C 0.000263524
26 *2348:RESET_B *206:88 0.000111922
27 *2371:D *2279:A 0.000140243
28 *2371:D *206:14 4.08637e-05
29 *2371:RESET_B *206:14 0.000130112
30 *2371:RESET_B *206:40 9.66977e-05
31 *55:20 *206:56 0.000143745
32 *95:18 *2183:B 9.15842e-06
33 *95:18 *206:88 0.00198004
34 *95:24 *206:88 2.28135e-05
35 *141:8 *206:56 0
36 *141:26 *206:40 0.000177672
37 *141:58 *206:56 0
38 *141:58 *206:88 0
39 *141:114 *2183:B 3.72685e-05
40 *141:114 *206:88 0
41 *149:32 *206:40 0.000165754
42 *159:40 *206:14 0.000361788
43 *161:10 *2280:C 5.48376e-05
44 *161:10 *206:56 0.000100823
45 *166:64 *206:40 0.000308007
46 *170:129 *2183:B 8.18064e-05
47 *170:129 *206:88 9.11116e-05
48 *174:18 *206:14 0.000155246
49 *174:18 *206:40 2.36971e-05
50 *174:156 *206:40 0.000168224
51 *181:142 *206:56 0.00143175
52 *184:54 *206:14 0.00025294
53 *184:114 *2183:B 5.79792e-05
54 *186:30 *206:14 6.15977e-06
55 *186:36 *206:14 0.000151222
56 *189:22 *206:40 0.000434038
57 *192:36 *206:40 0.000280248
58 *192:61 *206:56 0.000122682
59 *192:61 *206:88 6.73939e-05
60 *197:20 *206:40 7.95603e-05
61 *198:68 *206:40 0.00117506
62 *199:92 *206:88 2.69729e-05
63 *203:78 *206:46 0.000976334
64 *204:57 *2280:C 6.96878e-05
*RES
1 *2371:Q *206:4 9.3 
2 *206:4 *206:14 27.0893 
3 *206:14 *2279:A 13.4607 
4 *206:14 *464:DIODE 9.3 
5 *206:4 *206:40 45.8929 
6 *206:40 *206:46 18.5714 
7 *206:46 *206:56 28.9464 
8 *206:56 *2280:C 18.3536 
9 *206:56 *468:DIODE 13.8 
10 *206:46 *206:88 38.5893 
11 *206:88 *239:DIODE 9.3 
12 *206:88 *2183:B 22.2464 
*END

*D_NET *207 0.00908852
*CONN
*I *2281:A I *D sky130_fd_sc_hd__xor2_1
*I *2183:A I *D sky130_fd_sc_hd__or4_2
*I *2372:Q O *D sky130_fd_sc_hd__dfrtp_1
*CAP
1 *2281:A 0
2 *2183:A 0.000360162
3 *2372:Q 0.000301288
4 *207:37 0.00142165
5 *207:6 0.0020831
6 *2183:B *2183:A 8.16995e-05
7 *2281:B *207:37 0.000382311
8 *2351:RESET_B *2183:A 0.000125733
9 *2351:RESET_B *207:37 0.000264393
10 *2353:CLK *207:37 1.6507e-05
11 *2353:D *207:37 0
12 *2368:D *207:37 0.000556407
13 *2372:RESET_B *207:6 3.07377e-05
14 *2382:A *207:37 1.26512e-05
15 *44:10 *207:37 0.00227374
16 *95:18 *2183:A 5.9766e-05
17 *95:46 *2183:A 4.58194e-05
18 *141:58 *207:37 0
19 *141:114 *2183:A 0.000600366
20 *141:114 *207:37 0
21 *163:60 *207:37 0.000286414
22 *170:129 *2183:A 0.000178503
23 *173:14 *207:37 2.66789e-06
24 *186:98 *207:37 4.61308e-06
*RES
1 *2372:Q *207:6 12.7107 
2 *207:6 *2183:A 28.0857 
3 *207:6 *207:37 49.1495 
4 *207:37 *2281:A 9.3 
*END

*D_NET *208 0.0275861
*CONN
*I *2197:D I *D sky130_fd_sc_hd__and4_1
*I *275:DIODE I *D sky130_fd_sc_hd__diode_2
*I *279:DIODE I *D sky130_fd_sc_hd__diode_2
*I *2199:B1 I *D sky130_fd_sc_hd__a31o_1
*I *241:DIODE I *D sky130_fd_sc_hd__diode_2
*I *2183:D I *D sky130_fd_sc_hd__or4_2
*I *2344:Q O *D sky130_fd_sc_hd__dfrtp_2
*CAP
1 *2197:D 0.000182702
2 *275:DIODE 0
3 *279:DIODE 6.26899e-05
4 *2199:B1 0.000108558
5 *241:DIODE 0.000100299
6 *2183:D 0
7 *2344:Q 0.00110346
8 *208:66 0.00103642
9 *208:40 0.00019471
10 *208:38 0.00244147
11 *208:32 0.0021356
12 *208:14 0.00103217
13 *208:6 0.00260664
14 *2197:D *220:59 3.6205e-05
15 *208:38 *313:DIODE 3.69697e-05
16 *208:38 *2186:D_N 0.000215229
17 *208:38 *213:182 0.000130325
18 *208:66 *220:59 2.90582e-05
19 *2183:C *241:DIODE 0.000268042
20 *2197:B *2197:D 0.000221634
21 *2197:C *2197:D 0.000484511
22 *2241:A1 *208:38 7.83659e-05
23 *2299:A1 *208:6 0.000227838
24 *2299:A2 *208:32 0.000575128
25 *2344:RESET_B *208:6 4.78862e-05
26 *2353:D *208:14 0.000380123
27 *21:22 *2197:D 7.69499e-05
28 *26:32 *208:32 7.6644e-05
29 *44:10 *208:14 4.40802e-05
30 *55:20 *208:6 0.000203171
31 *80:12 *208:32 0.000536124
32 *80:12 *208:38 0.000137152
33 *100:125 *208:14 0.0018009
34 *119:24 *208:14 0.000355943
35 *119:24 *208:32 0.000568928
36 *119:44 *2197:D 4.77002e-05
37 *119:87 *208:14 7.78118e-05
38 *126:20 *208:38 0.000121573
39 *134:47 *208:38 0.00151129
40 *134:173 *208:14 0.00168673
41 *156:91 *279:DIODE 0.000185408
42 *157:29 *208:66 0.000392345
43 *170:129 *241:DIODE 0.00020486
44 *179:100 *279:DIODE 0.000315812
45 *179:100 *2199:B1 0.000143891
46 *179:100 *208:40 3.29297e-05
47 *182:26 *208:32 0.000352832
48 *183:37 *208:38 0
49 *183:51 *208:38 2.14378e-05
50 *183:101 *2199:B1 0.000189817
51 *183:101 *208:38 0.000159349
52 *183:101 *208:40 4.50762e-05
53 *190:38 *208:38 0.000488655
54 *190:44 *208:38 0.00139609
55 *190:88 *208:38 0
56 *191:90 *208:32 0
57 *191:90 *208:38 2.79585e-05
58 *191:98 *208:38 0
59 *194:47 *208:38 0
60 *194:49 *208:38 0
61 *194:61 *279:DIODE 8.43535e-06
62 *194:61 *208:66 9.41642e-05
63 *203:20 *279:DIODE 0.00015455
64 *203:20 *208:66 8.43535e-06
65 *203:26 *208:66 0.00194593
66 *203:74 *208:32 6.79966e-05
67 *203:78 *208:6 0.000128496
68 *203:78 *208:14 9.60875e-05
69 *203:96 *208:32 6.8646e-06
70 *204:82 *208:38 0
71 *205:14 *2199:B1 0
72 *205:70 *241:DIODE 0.000137639
*RES
1 *2344:Q *208:6 22.5679 
2 *208:6 *208:14 40.4286 
3 *208:14 *2183:D 9.3 
4 *208:14 *241:DIODE 13.1214 
5 *208:6 *208:32 22.1161 
6 *208:32 *208:38 40.4018 
7 *208:38 *208:40 0.732143 
8 *208:40 *2199:B1 16.3536 
9 *208:40 *279:DIODE 17.2107 
10 *208:38 *208:66 29.3571 
11 *208:66 *275:DIODE 13.8 
12 *208:66 *2197:D 20.1929 
*END

*D_NET *209 0.0331606
*CONN
*I *248:DIODE I *D sky130_fd_sc_hd__diode_2
*I *2186:A I *D sky130_fd_sc_hd__or4b_1
*I *2218:C I *D sky130_fd_sc_hd__or4b_1
*I *2204:A1 I *D sky130_fd_sc_hd__a21oi_1
*I *287:DIODE I *D sky130_fd_sc_hd__diode_2
*I *2203:A I *D sky130_fd_sc_hd__and3_2
*I *284:DIODE I *D sky130_fd_sc_hd__diode_2
*I *301:DIODE I *D sky130_fd_sc_hd__diode_2
*I *2211:A I *D sky130_fd_sc_hd__and4_2
*I *2202:A I *D sky130_fd_sc_hd__xor2_1
*I *282:DIODE I *D sky130_fd_sc_hd__diode_2
*I *320:DIODE I *D sky130_fd_sc_hd__diode_2
*I *2345:Q O *D sky130_fd_sc_hd__dfrtp_4
*CAP
1 *248:DIODE 0
2 *2186:A 0.000102229
3 *2218:C 0
4 *2204:A1 0.00012615
5 *287:DIODE 0
6 *2203:A 0
7 *284:DIODE 0
8 *301:DIODE 3.50428e-05
9 *2211:A 0.000495042
10 *2202:A 0.000144327
11 *282:DIODE 0
12 *320:DIODE 2.15913e-05
13 *2345:Q 0.000365714
14 *209:142 0.00158636
15 *209:115 0.000202107
16 *209:111 0.00327696
17 *209:105 0.00339337
18 *209:63 0.000602854
19 *209:61 0.000165838
20 *209:59 9.30683e-05
21 *209:57 0.00120503
22 *209:43 0.000391278
23 *209:39 0.00165926
24 *209:24 0.000466144
25 *209:22 0.000633174
26 *209:14 0.00243812
27 *301:DIODE *213:118 0.000101771
28 *2186:A *212:48 0.000175892
29 *2204:A1 *2204:B1 5.25759e-05
30 *2211:A *303:DIODE 0.000182729
31 *2211:A *2211:B 5.01234e-05
32 *2211:A *2211:D 9.41642e-05
33 *2211:A *211:96 0.000211904
34 *2211:A *212:104 0.000262841
35 *209:39 *211:78 0.000747467
36 *209:57 *211:78 0.00120535
37 *209:57 *211:96 0.000643417
38 *209:57 *213:118 0
39 *209:61 *211:96 0.000228508
40 *209:63 *211:96 0.000139208
41 *209:105 *211:96 3.14003e-05
42 *209:105 *213:118 0
43 *209:115 *2204:B1 5.0749e-05
44 *209:142 *212:20 0.000263572
45 *209:142 *212:48 0.000138217
46 *286:DIODE *209:61 5.49489e-05
47 *362:DIODE *2211:A 0.000181114
48 *365:DIODE *2211:A 0.000154553
49 *2218:A *209:22 9.90367e-05
50 *2218:A *209:24 5.71472e-05
51 *2218:B *209:22 0.000561564
52 *2225:A2 *209:111 0.00040279
53 *2339:A *209:142 5.31113e-05
54 *2345:D *209:142 7.56271e-05
55 *18:10 *2211:A 4.79773e-05
56 *37:12 *2202:A 8.48826e-05
57 *37:12 *209:43 0.00032965
58 *46:8 *2202:A 0.000392268
59 *46:8 *209:43 0.000301094
60 *75:32 *209:22 6.35864e-05
61 *75:32 *209:39 0.000170575
62 *96:20 *209:142 0.000188067
63 *96:46 *209:142 0.0002172
64 *98:10 *2186:A 3.97677e-05
65 *98:10 *209:142 0.000936722
66 *106:34 *209:22 0.000483803
67 *106:134 *209:105 8.19781e-05
68 *110:8 *2204:A1 2.3623e-05
69 *112:12 *209:111 0.00018969
70 *116:48 *209:14 6.578e-05
71 *116:48 *209:142 7.07702e-05
72 *120:14 *209:14 9.86945e-05
73 *125:10 *209:111 0.00101582
74 *134:39 *209:142 0.000115099
75 *138:32 *2211:A 7.88507e-05
76 *149:16 *209:14 0.000228136
77 *149:16 *209:142 0
78 *152:36 *209:43 0.000727818
79 *162:8 *209:142 0.000106505
80 *169:44 *209:142 0.000150142
81 *169:202 *301:DIODE 0.000101227
82 *171:66 *2202:A 0.000289885
83 *171:66 *209:43 0.000194182
84 *172:160 *209:39 0.000678572
85 *172:160 *209:57 0.0001573
86 *174:6 *209:142 0.000177815
87 *174:10 *209:142 0.00026546
88 *181:22 *209:22 0.00026844
89 *181:142 *320:DIODE 5.65955e-05
90 *181:142 *209:22 8.57023e-05
91 *181:142 *209:24 0.00012835
92 *184:54 *209:39 0
93 *184:54 *209:57 0
94 *185:80 *209:111 0.000498096
95 *195:72 *209:14 0.00010421
96 *200:48 *2202:A 0.000178503
97 *201:69 *209:142 6.60111e-05
98 *204:28 *209:111 7.83659e-05
*RES
1 *2345:Q *209:14 22.3221 
2 *209:14 *209:22 24.9189 
3 *209:22 *209:24 1.35714 
4 *209:24 *320:DIODE 9.83571 
5 *209:24 *209:39 17.4286 
6 *209:39 *209:43 13.6607 
7 *209:43 *282:DIODE 9.3 
8 *209:43 *2202:A 14.7643 
9 *209:39 *209:57 24.1071 
10 *209:57 *209:59 4.5 
11 *209:59 *209:61 2.17857 
12 *209:61 *209:63 1.35714 
13 *209:63 *2211:A 28.9429 
14 *209:63 *301:DIODE 19.6393 
15 *209:61 *284:DIODE 9.3 
16 *209:59 *2203:A 9.3 
17 *209:57 *209:105 8.26786 
18 *209:105 *209:111 47.5536 
19 *209:111 *209:115 5.44643 
20 *209:115 *287:DIODE 9.3 
21 *209:115 *2204:A1 11.0679 
22 *209:22 *2218:C 9.3 
23 *209:14 *209:142 34.8135 
24 *209:142 *2186:A 11.4964 
25 *209:142 *248:DIODE 9.3 
*END

*D_NET *210 0.0307616
*CONN
*I *2186:B I *D sky130_fd_sc_hd__or4b_1
*I *2219:A I *D sky130_fd_sc_hd__or4_1
*I *322:DIODE I *D sky130_fd_sc_hd__diode_2
*I *249:DIODE I *D sky130_fd_sc_hd__diode_2
*I *289:DIODE I *D sky130_fd_sc_hd__diode_2
*I *2204:B1 I *D sky130_fd_sc_hd__a21oi_1
*I *285:DIODE I *D sky130_fd_sc_hd__diode_2
*I *2203:B I *D sky130_fd_sc_hd__and3_2
*I *302:DIODE I *D sky130_fd_sc_hd__diode_2
*I *2211:B I *D sky130_fd_sc_hd__and4_2
*I *2346:Q O *D sky130_fd_sc_hd__dfrtp_4
*CAP
1 *2186:B 0.000275042
2 *2219:A 0
3 *322:DIODE 0.000170919
4 *249:DIODE 0
5 *289:DIODE 0
6 *2204:B1 0.000187142
7 *285:DIODE 0
8 *2203:B 0
9 *302:DIODE 0
10 *2211:B 0.000293028
11 *2346:Q 0
12 *210:101 0.000565448
13 *210:90 0.0014499
14 *210:86 0.00213184
15 *210:58 0.00205675
16 *210:20 0.00107743
17 *210:18 0.00109048
18 *210:16 0.000561747
19 *210:12 0.00326519
20 *210:4 0.00249142
21 *2186:B *218:50 3.87787e-05
22 *210:86 *217:22 0.000139854
23 *210:90 *217:22 5.96516e-05
24 *210:90 *218:50 0.000189704
25 *210:101 *212:32 5.28442e-06
26 *337:DIODE *210:58 2.72967e-05
27 *407:DIODE *210:58 0.000146724
28 *2204:A1 *2204:B1 5.25759e-05
29 *2211:A *2211:B 5.01234e-05
30 *2219:D *322:DIODE 3.04274e-05
31 *2219:D *210:101 1.89507e-06
32 *2254:A2 *210:58 5.33433e-05
33 *2254:B1 *210:58 7.20784e-05
34 *19:12 *210:12 0.00116471
35 *51:22 *210:101 0
36 *56:18 *210:12 0.00149847
37 *93:10 *210:12 0
38 *95:24 *322:DIODE 0.000155236
39 *96:20 *322:DIODE 0.000140907
40 *96:46 *210:12 0.000449971
41 *96:46 *210:58 0.000353007
42 *97:24 *210:86 0.000546488
43 *100:99 *210:86 0.000136895
44 *107:10 *2186:B 0.000192141
45 *110:8 *2204:B1 7.20217e-06
46 *117:12 *210:86 0.000132948
47 *118:22 *210:58 0.000446777
48 *118:28 *210:12 0
49 *118:28 *210:58 0
50 *124:16 *210:101 0.00062264
51 *129:12 *2211:B 0.000264539
52 *129:12 *210:16 0.000334729
53 *129:12 *210:18 0.000422578
54 *129:12 *210:20 0.0011546
55 *134:175 *210:58 4.47653e-05
56 *145:8 *210:58 0.0014338
57 *151:92 *2186:B 3.69047e-06
58 *174:156 *210:86 0.000166503
59 *175:33 *2186:B 0.000192141
60 *184:36 *2211:B 0.00021298
61 *185:114 *2211:B 5.17418e-05
62 *192:36 *210:86 0.000347642
63 *195:156 *210:58 9.15469e-05
64 *197:20 *210:86 0.00184647
65 *197:44 *210:86 0.000904408
66 *198:68 *210:86 0
67 *206:40 *210:86 0.000907248
68 *209:115 *2204:B1 5.0749e-05
*RES
1 *2346:Q *210:4 9.3 
2 *210:4 *210:12 35.0357 
3 *210:12 *210:16 7.91071 
4 *210:16 *210:18 4.23214 
5 *210:18 *210:20 11.2143 
6 *210:20 *2211:B 23.7464 
7 *210:20 *302:DIODE 9.3 
8 *210:18 *2203:B 9.3 
9 *210:16 *285:DIODE 9.3 
10 *210:12 *210:58 42.7143 
11 *210:58 *2204:B1 12.925 
12 *210:58 *289:DIODE 9.3 
13 *210:4 *210:86 49.8571 
14 *210:86 *210:90 9.58929 
15 *210:90 *249:DIODE 9.3 
16 *210:90 *210:101 17.3214 
17 *210:101 *322:DIODE 12.8536 
18 *210:101 *2219:A 9.3 
19 *210:90 *2186:B 23.0321 
*END

*D_NET *211 0.04411
*CONN
*I *2207:A I *D sky130_fd_sc_hd__nand2_1
*I *294:DIODE I *D sky130_fd_sc_hd__diode_2
*I *2211:C I *D sky130_fd_sc_hd__and4_2
*I *303:DIODE I *D sky130_fd_sc_hd__diode_2
*I *321:DIODE I *D sky130_fd_sc_hd__diode_2
*I *2218:D_N I *D sky130_fd_sc_hd__or4b_1
*I *251:DIODE I *D sky130_fd_sc_hd__diode_2
*I *2186:D_N I *D sky130_fd_sc_hd__or4b_1
*I *292:DIODE I *D sky130_fd_sc_hd__diode_2
*I *2206:A I *D sky130_fd_sc_hd__or2_1
*I *2347:Q O *D sky130_fd_sc_hd__dfrtp_4
*CAP
1 *2207:A 0.000193606
2 *294:DIODE 0
3 *2211:C 0.000710701
4 *303:DIODE 3.54711e-05
5 *321:DIODE 7.51277e-05
6 *2218:D_N 0
7 *251:DIODE 0
8 *2186:D_N 0.00015124
9 *292:DIODE 0
10 *2206:A 0.000115273
11 *2347:Q 0.000290223
12 *211:118 0.000234823
13 *211:96 0.00126081
14 *211:78 0.00134634
15 *211:70 0.00309789
16 *211:66 0.00323659
17 *211:60 0.00336225
18 *211:38 0.00162059
19 *211:14 0.00131593
20 *211:10 0.00294292
21 *211:8 0.00195962
22 *2186:D_N *213:182 0.000216815
23 *2211:C *2211:D 0.000141231
24 *2211:C *212:104 0.000133794
25 *286:DIODE *211:96 1.98839e-05
26 *550:DIODE *211:10 0.000145406
27 *550:DIODE *211:38 5.39166e-06
28 *559:DIODE *211:10 0.000128154
29 *559:DIODE *211:60 4.97876e-05
30 *2211:A *303:DIODE 0.000182729
31 *2211:A *211:96 0.000211904
32 *2218:A *321:DIODE 0.000125547
33 *2218:A *211:78 0.000230475
34 *2235:A2 *2211:C 1.47872e-05
35 *2235:B1 *2211:C 0.00026023
36 *2253:A *211:60 0.000146474
37 *2270:A *211:66 1.5424e-05
38 *2270:B *211:66 7.48301e-06
39 *2270:C *211:66 9.90431e-05
40 *2341:CLK *2186:D_N 5.33005e-05
41 *2354:RESET_B *211:60 0.000100478
42 *2355:D *2211:C 2.57552e-06
43 *2362:CLK *211:10 2.82057e-05
44 *28:28 *2211:C 1.2294e-05
45 *31:24 *211:10 1.90936e-05
46 *48:12 *2186:D_N 0.000178847
47 *48:12 *211:38 0.00155644
48 *58:18 *2207:A 5.14742e-05
49 *58:18 *211:60 0.00184059
50 *58:18 *211:118 5.33978e-05
51 *58:26 *211:60 0.000100823
52 *67:26 *211:60 0.00058812
53 *73:18 *2186:D_N 0.000178847
54 *73:18 *211:38 0.001544
55 *75:32 *211:78 0.000100823
56 *102:10 *211:14 0
57 *106:34 *211:78 0
58 *106:108 *211:78 0
59 *106:108 *211:96 0
60 *106:134 *211:96 1.6806e-05
61 *109:10 *211:96 2.29031e-05
62 *111:8 *2206:A 5.41494e-05
63 *111:10 *211:10 0
64 *111:10 *211:14 0
65 *111:10 *211:60 0
66 *113:18 *211:8 0.000136039
67 *119:133 *211:60 0.000350538
68 *122:49 *2211:C 3.51056e-05
69 *126:12 *211:10 2.50556e-05
70 *126:12 *211:14 0.000691309
71 *126:12 *211:60 7.22427e-05
72 *126:40 *211:60 2.47093e-05
73 *134:39 *2186:D_N 2.59355e-05
74 *134:65 *2186:D_N 6.05161e-06
75 *138:32 *303:DIODE 0.000182729
76 *138:32 *211:96 0.00060989
77 *150:35 *2207:A 0.000165987
78 *151:22 *211:66 5.49489e-05
79 *151:28 *211:66 0.000227636
80 *151:69 *211:38 3.0833e-05
81 *170:34 *211:14 0
82 *175:185 *211:38 0.000623686
83 *175:219 *211:10 9.90819e-06
84 *175:219 *211:60 0.000350859
85 *184:20 *211:70 0.00178565
86 *184:144 *211:66 0.00082132
87 *184:155 *211:66 0.000269006
88 *188:102 *2211:C 1.16543e-05
89 *192:120 *211:60 0.000665472
90 *192:126 *2207:A 3.9342e-05
91 *192:126 *211:60 0.000628369
92 *192:126 *211:118 4.8936e-05
93 *200:14 *211:38 1.9774e-05
94 *201:71 *211:66 0.00201601
95 *201:71 *211:70 1.51571e-05
96 *201:78 *211:66 0.000228905
97 *201:85 *211:66 0.000139202
98 *208:38 *2186:D_N 0.000215229
99 *209:39 *211:78 0.000747467
100 *209:57 *211:78 0.00120535
101 *209:57 *211:96 0.000643417
102 *209:61 *211:96 0.000228508
103 *209:63 *211:96 0.000139208
104 *209:105 *211:96 3.14003e-05
*RES
1 *2347:Q *211:8 19.2643 
2 *211:8 *211:10 5.58929 
3 *211:10 *211:14 30.7321 
4 *211:14 *2206:A 11.4786 
5 *211:14 *292:DIODE 9.3 
6 *211:10 *211:38 41.8929 
7 *211:38 *2186:D_N 23.4607 
8 *211:38 *251:DIODE 9.3 
9 *211:8 *211:60 46.875 
10 *211:60 *211:66 42.0179 
11 *211:66 *211:70 22.2857 
12 *211:70 *211:78 33.9464 
13 *211:78 *2218:D_N 9.3 
14 *211:78 *321:DIODE 10.6571 
15 *211:70 *211:96 19.3036 
16 *211:96 *303:DIODE 11.0679 
17 *211:96 *2211:C 27.8714 
18 *211:60 *211:118 1.33929 
19 *211:118 *294:DIODE 13.8 
20 *211:118 *2207:A 17.7464 
*END

*D_NET *212 0.0309639
*CONN
*I *304:DIODE I *D sky130_fd_sc_hd__diode_2
*I *2211:D I *D sky130_fd_sc_hd__and4_2
*I *300:DIODE I *D sky130_fd_sc_hd__diode_2
*I *2210:A I *D sky130_fd_sc_hd__inv_2
*I *250:DIODE I *D sky130_fd_sc_hd__diode_2
*I *2186:C I *D sky130_fd_sc_hd__or4b_1
*I *323:DIODE I *D sky130_fd_sc_hd__diode_2
*I *2219:B I *D sky130_fd_sc_hd__or4_1
*I *2348:Q O *D sky130_fd_sc_hd__dfrtp_2
*CAP
1 *304:DIODE 0
2 *2211:D 0.000416673
3 *300:DIODE 0.000110392
4 *2210:A 0.000175077
5 *250:DIODE 0.000232278
6 *2186:C 0
7 *323:DIODE 0.000521083
8 *2219:B 0
9 *2348:Q 0.00140004
10 *212:104 0.00137228
11 *212:48 0.000421454
12 *212:32 0.00109405
13 *212:20 0.00142511
14 *212:14 0.000871605
15 *212:12 0.00144235
16 *212:10 0.00365404
17 *324:DIODE *323:DIODE 9.06504e-05
18 *362:DIODE *2211:D 7.06098e-05
19 *560:DIODE *212:10 0.000171206
20 *2182:D *212:104 0.000472206
21 *2186:A *212:48 0.000175892
22 *2211:A *2211:D 9.41642e-05
23 *2211:A *212:104 0.000262841
24 *2211:C *2211:D 0.000141231
25 *2211:C *212:104 0.000133794
26 *2219:D *212:32 1.57345e-05
27 *2341:CLK *250:DIODE 0.000100823
28 *2346:RESET_B *212:12 0.000285413
29 *2348:CLK *212:10 0.000132341
30 *2348:D *212:10 9.01258e-06
31 *2355:D *2211:D 3.32737e-05
32 *2379:A *212:12 0.000336563
33 *2379:A *212:14 7.49777e-05
34 *2379:A *212:20 1.94879e-05
35 *18:10 *2211:D 4.51736e-05
36 *21:24 *212:12 0.00048977
37 *21:24 *212:20 0.000263406
38 *28:28 *212:104 9.96487e-05
39 *51:22 *212:32 0.000641196
40 *60:10 *212:10 0.000392574
41 *60:10 *212:12 9.24765e-05
42 *60:12 *212:12 0.00126352
43 *60:12 *212:14 6.63548e-05
44 *60:12 *212:20 0.00131951
45 *73:18 *250:DIODE 0.000464893
46 *95:24 *323:DIODE 4.23643e-05
47 *95:24 *212:32 4.48647e-05
48 *106:51 *212:12 0.000122877
49 *109:12 *212:104 0.000588677
50 *119:38 *300:DIODE 2.76585e-05
51 *119:38 *2210:A 0.000219642
52 *121:12 *212:32 5.65955e-05
53 *122:49 *212:104 0.00103569
54 *130:20 *212:104 0.00112274
55 *134:39 *212:20 0.000517363
56 *134:39 *212:48 0.000501523
57 *138:26 *212:20 0.000121549
58 *159:16 *2210:A 4.58194e-05
59 *159:18 *212:20 0.000760804
60 *169:100 *250:DIODE 0.000298483
61 *171:86 *212:12 0.000311825
62 *175:33 *250:DIODE 0.000100823
63 *176:17 *212:12 0.000175519
64 *176:52 *212:12 0.000707225
65 *176:63 *212:12 0.000158923
66 *176:102 *2211:D 0.000155852
67 *176:142 *212:10 0
68 *176:142 *212:12 0
69 *191:74 *2210:A 6.05161e-06
70 *191:90 *250:DIODE 0.000135028
71 *193:72 *2211:D 3.69047e-06
72 *195:120 *212:12 0.00141617
73 *195:156 *212:10 0.000483472
74 *195:156 *212:12 0.000406289
75 *202:24 *300:DIODE 9.41642e-05
76 *209:142 *212:20 0.000263572
77 *209:142 *212:48 0.000138217
78 *210:101 *212:32 5.28442e-06
*RES
1 *2348:Q *212:10 38.7643 
2 *212:10 *212:12 43.2321 
3 *212:12 *212:14 1.03571 
4 *212:14 *212:20 26.9821 
5 *212:20 *212:32 20.0536 
6 *212:32 *2219:B 9.3 
7 *212:32 *323:DIODE 15.175 
8 *212:20 *212:48 5.78571 
9 *212:48 *2186:C 9.3 
10 *212:48 *250:DIODE 25.0143 
11 *212:14 *2210:A 17.2286 
12 *212:12 *300:DIODE 15.1571 
13 *212:10 *212:104 39.0536 
14 *212:104 *2211:D 26.2821 
15 *212:104 *304:DIODE 9.3 
*END

*D_NET *213 0.05203
*CONN
*I *313:DIODE I *D sky130_fd_sc_hd__diode_2
*I *2215:A1 I *D sky130_fd_sc_hd__a21oi_1
*I *370:DIODE I *D sky130_fd_sc_hd__diode_2
*I *2237:C I *D sky130_fd_sc_hd__and4_1
*I *2179:C I *D sky130_fd_sc_hd__nand4_1
*I *228:DIODE I *D sky130_fd_sc_hd__diode_2
*I *315:DIODE I *D sky130_fd_sc_hd__diode_2
*I *2216:A I *D sky130_fd_sc_hd__and4_1
*I *310:DIODE I *D sky130_fd_sc_hd__diode_2
*I *2214:A1 I *D sky130_fd_sc_hd__o21ai_1
*I *327:DIODE I *D sky130_fd_sc_hd__diode_2
*I *2221:A1 I *D sky130_fd_sc_hd__a31o_1
*I *2349:Q O *D sky130_fd_sc_hd__dfrtp_4
*CAP
1 *313:DIODE 0.00014136
2 *2215:A1 0.00055288
3 *370:DIODE 0
4 *2237:C 0
5 *2179:C 0.000179007
6 *228:DIODE 0
7 *315:DIODE 0
8 *2216:A 0.000161035
9 *310:DIODE 0
10 *2214:A1 0.000145253
11 *327:DIODE 0
12 *2221:A1 0.000419651
13 *2349:Q 0.000830224
14 *213:182 0.00119959
15 *213:152 0.000220863
16 *213:146 0.00417285
17 *213:144 0.00431205
18 *213:122 0.00064228
19 *213:118 0.00222102
20 *213:103 0.0016634
21 *213:92 0.000699124
22 *213:79 0.000469719
23 *213:58 0.00111287
24 *213:50 0.00180496
25 *213:30 0.00148912
26 *213:24 0.00237227
27 *213:12 0.00335099
28 *2179:C *2179:D 0.000100625
29 *213:30 *214:38 2.11419e-05
30 *213:58 *214:38 0.00112881
31 *213:58 *214:53 9.21418e-06
32 *213:146 *214:100 0.0032455
33 *301:DIODE *213:118 0.000101771
34 *384:DIODE *2216:A 0
35 *385:DIODE *2216:A 0.000127446
36 *2179:A *213:146 4.0342e-06
37 *2186:D_N *213:182 0.000216815
38 *2193:B *213:182 0.000108353
39 *2214:A2 *2214:A1 7.02438e-05
40 *2215:A2 *2215:A1 5.25337e-05
41 *2216:C *2216:A 3.34693e-05
42 *2221:A2 *2221:A1 1.03233e-05
43 *2221:A3 *2221:A1 0.000208069
44 *2237:B *213:50 0.000136682
45 *2297:C *213:58 7.80059e-05
46 *2348:D *213:118 0
47 *2348:D *213:144 0
48 *2349:CLK *213:12 1.55953e-05
49 *2349:RESET_B *213:12 9.3111e-05
50 *2370:RESET_B *213:152 2.56694e-05
51 *2377:RESET_B *213:24 8.25843e-06
52 *18:10 *213:58 0.00114927
53 *29:12 *213:118 0.00117405
54 *39:24 *313:DIODE 3.25078e-05
55 *39:24 *213:182 0.000500802
56 *41:18 *213:12 5.49168e-05
57 *51:12 *2215:A1 0.000187391
58 *60:12 *213:24 7.74135e-05
59 *95:24 *2215:A1 0
60 *100:75 *2214:A1 3.55039e-05
61 *100:84 *2214:A1 2.09236e-05
62 *100:84 *213:103 0.000124245
63 *100:84 *213:118 0.000171913
64 *100:99 *213:118 5.50052e-05
65 *106:134 *213:118 0
66 *106:134 *213:122 0.000604321
67 *106:168 *2221:A1 5.37664e-05
68 *115:32 *2221:A1 8.27532e-05
69 *115:60 *2221:A1 6.42095e-05
70 *116:78 *2216:A 4.46186e-06
71 *117:26 *2215:A1 9.41642e-05
72 *121:12 *213:24 9.58689e-05
73 *123:8 *2221:A1 5.91452e-05
74 *123:8 *213:79 1.58163e-05
75 *123:8 *213:92 0.000156852
76 *130:52 *2215:A1 0.000469497
77 *131:44 *213:92 0.000831397
78 *134:47 *213:12 0.000737467
79 *134:47 *213:182 0.000547194
80 *141:26 *2221:A1 5.33005e-05
81 *141:26 *213:79 4.08637e-05
82 *141:26 *213:92 0.000462824
83 *141:40 *213:58 0.000569081
84 *151:92 *213:12 0
85 *159:18 *213:24 7.58841e-05
86 *159:40 *213:24 0.000689467
87 *159:40 *213:30 0.000139163
88 *169:22 *213:118 0.000387626
89 *169:40 *213:50 0.000896461
90 *169:202 *213:118 0.000574239
91 *169:228 *213:118 8.14722e-05
92 *171:170 *2216:A 0
93 *171:180 *2216:A 5.52302e-05
94 *171:180 *213:122 0.000392392
95 *171:198 *213:122 0.00161626
96 *175:18 *213:24 4.17702e-05
97 *175:24 *213:24 0.000143583
98 *175:24 *213:182 0
99 *175:33 *213:182 0
100 *175:75 *213:12 1.44094e-05
101 *178:8 *213:24 0.00047348
102 *184:54 *213:30 2.17593e-05
103 *184:54 *213:50 0.000547381
104 *184:54 *213:118 0.00148651
105 *186:30 *213:50 0.000554379
106 *189:56 *213:30 4.82385e-05
107 *190:88 *213:12 0.000194684
108 *192:126 *2179:C 1.32552e-05
109 *192:126 *213:152 3.92854e-05
110 *193:10 *2221:A1 5.54204e-05
111 *193:74 *213:146 4.8035e-05
112 *195:42 *213:92 0.000572328
113 *195:72 *213:30 0
114 *202:62 *313:DIODE 0.000139907
115 *206:14 *213:50 7.70035e-05
116 *208:38 *313:DIODE 3.69697e-05
117 *208:38 *213:182 0.000130325
118 *209:57 *213:118 0
119 *209:105 *213:118 0
*RES
1 *2349:Q *213:12 29.0143 
2 *213:12 *213:24 39.8393 
3 *213:24 *213:30 9.64286 
4 *213:30 *213:50 38.0357 
5 *213:50 *213:58 27.75 
6 *213:58 *2221:A1 26.2018 
7 *213:58 *213:79 0.535714 
8 *213:79 *327:DIODE 9.3 
9 *213:79 *213:92 24.3929 
10 *213:92 *2214:A1 11.6929 
11 *213:92 *213:103 1.35714 
12 *213:103 *310:DIODE 9.3 
13 *213:103 *213:118 43.5893 
14 *213:118 *213:122 23.5179 
15 *213:122 *2216:A 21.6929 
16 *213:122 *315:DIODE 9.3 
17 *213:118 *213:144 7.35714 
18 *213:144 *213:146 58.0357 
19 *213:146 *213:152 10.0357 
20 *213:152 *228:DIODE 9.3 
21 *213:152 *2179:C 12.6393 
22 *213:30 *2237:C 13.8 
23 *213:24 *370:DIODE 9.3 
24 *213:12 *213:182 13.7857 
25 *213:182 *2215:A1 30.9429 
26 *213:182 *313:DIODE 16.1929 
*END

*D_NET *214 0.0425884
*CONN
*I *371:DIODE I *D sky130_fd_sc_hd__diode_2
*I *2237:D I *D sky130_fd_sc_hd__and4_1
*I *2179:D I *D sky130_fd_sc_hd__nand4_1
*I *229:DIODE I *D sky130_fd_sc_hd__diode_2
*I *316:DIODE I *D sky130_fd_sc_hd__diode_2
*I *2216:B I *D sky130_fd_sc_hd__and4_1
*I *2221:B1 I *D sky130_fd_sc_hd__a31o_1
*I *330:DIODE I *D sky130_fd_sc_hd__diode_2
*I *2350:Q O *D sky130_fd_sc_hd__dfrtp_4
*CAP
1 *371:DIODE 0
2 *2237:D 0
3 *2179:D 0.000182335
4 *229:DIODE 0
5 *316:DIODE 0
6 *2216:B 0.000416112
7 *2221:B1 1.86966e-05
8 *330:DIODE 0
9 *2350:Q 0.00115378
10 *214:106 0.00026838
11 *214:100 0.00193913
12 *214:98 0.00199992
13 *214:87 0.000357249
14 *214:68 0.00175055
15 *214:53 0.00156967
16 *214:38 0.00251088
17 *214:26 0.00234463
18 *214:22 0.00298275
19 *214:10 0.00387582
20 *607:DIODE *214:22 0.000135028
21 *2179:C *2179:D 0.000100625
22 *2244:A *2216:B 5.52238e-05
23 *2288:B1 *214:10 3.51314e-05
24 *2358:RESET_B *214:68 0.000154926
25 *2371:D *214:38 7.06575e-05
26 *2377:RESET_B *214:22 0.00135132
27 *2379:A *214:38 0
28 *18:10 *214:38 0.000147869
29 *18:10 *214:53 2.06292e-05
30 *31:14 *214:68 0
31 *33:26 *214:10 0.000380596
32 *35:30 *214:10 0.000420517
33 *42:24 *214:10 1.94945e-05
34 *53:12 *214:10 0.000163235
35 *89:12 *214:22 5.33005e-05
36 *104:36 *214:87 0
37 *105:12 *214:22 6.57032e-05
38 *105:12 *214:26 9.90837e-05
39 *115:32 *214:38 1.55485e-05
40 *115:32 *214:53 1.76569e-05
41 *115:34 *214:38 0.00121074
42 *116:72 *214:53 1.37495e-05
43 *118:22 *2216:B 0.000393489
44 *132:18 *214:38 1.01912e-05
45 *133:16 *214:53 4.97144e-05
46 *141:40 *214:38 0.000570667
47 *141:40 *214:53 9.54798e-06
48 *156:71 *214:22 4.02038e-05
49 *158:22 *214:38 0.000110894
50 *164:18 *214:10 0.000100248
51 *166:30 *214:38 0.000318844
52 *169:34 *2221:B1 6.98971e-05
53 *169:34 *214:68 0.00165421
54 *171:10 *214:68 0.00062505
55 *171:16 *2221:B1 7.19848e-05
56 *171:16 *214:68 0.00100631
57 *171:170 *214:68 0.00117412
58 *171:170 *214:87 8.01784e-05
59 *171:198 *214:87 2.8266e-06
60 *171:198 *214:98 1.37292e-05
61 *177:170 *214:106 0
62 *178:8 *214:22 0.000554083
63 *180:20 *214:10 0.000266686
64 *181:78 *214:10 0.000127405
65 *189:30 *214:22 4.73786e-05
66 *192:126 *2179:D 0.000151071
67 *192:126 *214:106 6.42338e-05
68 *193:22 *214:53 0.000422785
69 *193:50 *214:68 0.000475526
70 *193:72 *214:68 0
71 *193:72 *214:87 0
72 *193:72 *214:98 0
73 *193:74 *214:100 0.00387148
74 *199:134 *214:10 0
75 *213:30 *214:38 2.11419e-05
76 *213:58 *214:38 0.00112881
77 *213:58 *214:53 9.21418e-06
78 *213:146 *214:100 0.0032455
*RES
1 *2350:Q *214:10 43.0143 
2 *214:10 *214:22 37.3929 
3 *214:22 *214:26 3.42857 
4 *214:26 *214:38 44.5271 
5 *214:38 *330:DIODE 13.8 
6 *214:38 *214:53 9.29494 
7 *214:53 *2221:B1 14.6839 
8 *214:53 *214:68 43.1339 
9 *214:68 *2216:B 20.2286 
10 *214:68 *214:87 3.82143 
11 *214:87 *316:DIODE 13.8 
12 *214:87 *214:98 7.05357 
13 *214:98 *214:100 70.3571 
14 *214:100 *214:106 10.6429 
15 *214:106 *229:DIODE 9.3 
16 *214:106 *2179:D 13.7464 
17 *214:26 *2237:D 9.3 
18 *214:22 *371:DIODE 9.3 
*END

*D_NET *215 0.0142184
*CONN
*I *2391:A I *D sky130_fd_sc_hd__buf_1
*I *2378:X O *D sky130_fd_sc_hd__buf_1
*CAP
1 *2391:A 0.00174069
2 *2378:X 0.00102258
3 *215:10 0.00276327
4 *215:10 *612:DIODE 7.27282e-05
5 *395:DIODE *215:10 1.50961e-05
6 *475:DIODE *2391:A 0.000225642
7 *2229:B *2391:A 0.000112995
8 *2249:B *215:10 1.74502e-05
9 *2249:C *215:10 0.000522568
10 *2249:D *215:10 6.38037e-05
11 *2260:A *2391:A 2.28598e-05
12 *2272:B *2391:A 0.000561063
13 *2281:B *215:10 0.000592363
14 *2285:B1 *2391:A 6.41179e-05
15 *2307:A *2391:A 2.16015e-05
16 *57:12 *2391:A 0.000358727
17 *115:70 *215:10 0.0016807
18 *123:8 *215:10 0.000840219
19 *130:38 *215:10 0.000726567
20 *134:105 *215:10 0.000250686
21 *134:159 *215:10 9.42015e-05
22 *141:26 *215:10 0.000138436
23 *156:14 *2391:A 7.36469e-05
24 *156:38 *2391:A 1.98839e-05
25 *162:20 *2391:A 0.000391
26 *179:14 *2391:A 0.000946234
27 *186:113 *2391:A 0.000158902
28 *193:22 *215:10 0.00070712
29 *205:68 *215:10 1.3232e-05
*RES
1 *2378:X *215:10 48.5143 
2 *215:10 *2391:A 48.8893 
*END

*D_NET *216 0.0114249
*CONN
*I *2392:A I *D sky130_fd_sc_hd__buf_1
*I *2293:Y O *D sky130_fd_sc_hd__inv_2
*CAP
1 *2392:A 0.00103072
2 *2293:Y 0.000551501
3 *216:12 0.00201387
4 *216:8 0.00153465
5 *373:DIODE *2392:A 4.33899e-05
6 *466:DIODE *2392:A 9.71601e-05
7 *2226:A *2392:A 0.000213179
8 *2226:C *2392:A 6.13217e-05
9 *2280:C *216:12 5.64168e-05
10 *42:24 *216:12 0.000230213
11 *115:70 *2392:A 0.000438142
12 *119:115 *216:12 5.1588e-05
13 *119:133 *2392:A 5.17614e-05
14 *126:8 *2392:A 0.000610084
15 *150:35 *216:12 0
16 *156:140 *2392:A 8.56851e-05
17 *161:10 *216:12 0.000758672
18 *177:124 *216:12 2.6949e-05
19 *180:156 *216:12 0.000327608
20 *183:150 *216:12 0.00233703
21 *184:161 *2392:A 9.80173e-05
22 *185:30 *2392:A 7.95355e-05
23 *201:71 *216:8 0.000268291
24 *203:56 *2392:A 6.28241e-05
25 *203:58 *2392:A 0.000150723
26 *203:66 *2392:A 0.00015502
27 *206:56 *216:12 9.0573e-05
*RES
1 *2293:Y *216:8 20.9071 
2 *216:8 *216:12 35.2857 
3 *216:12 *2392:A 32.8357 
*END

*D_NET *217 0.0189893
*CONN
*I *2393:A I *D sky130_fd_sc_hd__buf_1
*I *616:DIODE I *D sky130_fd_sc_hd__diode_2
*I *2296:Y O *D sky130_fd_sc_hd__o21ai_2
*CAP
1 *2393:A 2.80047e-05
2 *616:DIODE 0
3 *2296:Y 0.0017035
4 *217:32 6.8693e-05
5 *217:30 0.00352745
6 *217:22 0.0045254
7 *217:14 0.00274214
8 *217:22 *218:50 2.37871e-05
9 *2180:B *217:30 8.46829e-05
10 *2357:RESET_B *217:30 0.000128809
11 *2379:A *217:22 0.000111243
12 *58:26 *217:30 0.000137983
13 *60:12 *217:22 0.000865799
14 *117:26 *217:22 1.90936e-05
15 *142:14 *217:14 0.000177612
16 *156:65 *217:30 0.000135028
17 *167:24 *217:22 4.85277e-05
18 *167:28 *217:22 0.000752924
19 *167:38 *217:14 0.00116766
20 *167:38 *217:22 0.00165157
21 *172:46 *217:30 0.000314713
22 *174:165 *217:30 0.00019855
23 *190:6 *217:30 9.05473e-05
24 *190:34 *217:30 0.000243319
25 *190:138 *217:30 4.27935e-05
26 *210:86 *217:22 0.000139854
27 *210:90 *217:22 5.96516e-05
*RES
1 *2296:Y *217:14 46.5679 
2 *217:14 *217:22 36.9107 
3 *217:22 *217:30 49.3661 
4 *217:30 *217:32 0.741071 
5 *217:32 *616:DIODE 9.3 
6 *217:32 *2393:A 9.83571 
*END

*D_NET *218 0.0304052
*CONN
*I *612:DIODE I *D sky130_fd_sc_hd__diode_2
*I *2378:A I *D sky130_fd_sc_hd__buf_1
*I *2394:A I *D sky130_fd_sc_hd__buf_1
*I *617:DIODE I *D sky130_fd_sc_hd__diode_2
*I *2295:X O *D sky130_fd_sc_hd__a211o_1
*CAP
1 *612:DIODE 6.55071e-05
2 *2378:A 0
3 *2394:A 3.03027e-05
4 *617:DIODE 0
5 *2295:X 0.000918523
6 *218:76 0.00081804
7 *218:58 0.00121147
8 *218:50 0.00356511
9 *218:34 0.00557591
10 *218:14 0.00335796
11 *438:DIODE *218:50 9.11048e-06
12 *2186:B *218:50 3.87787e-05
13 *2220:A *218:14 5.52302e-05
14 *2267:A *218:58 4.4873e-05
15 *2295:A1 *218:14 5.19842e-06
16 *2295:B1 *218:14 0.00014592
17 *2295:C1 *218:14 7.54868e-05
18 *2329:A *218:50 2.06112e-05
19 *2341:RESET_B *218:50 0.000160762
20 *2377:RESET_B *218:50 0.000178425
21 *30:16 *218:34 0.000213369
22 *70:12 *218:34 0.00013514
23 *70:12 *218:76 0.000952722
24 *71:22 *218:34 0.000200635
25 *75:32 *218:50 0
26 *77:8 *218:58 0.00107076
27 *82:18 *218:34 0.000132119
28 *82:18 *218:76 0.00207571
29 *94:43 *218:14 0.00223074
30 *101:24 *218:34 7.53529e-06
31 *101:24 *218:76 0.000285114
32 *106:34 *218:76 0.000802528
33 *121:20 *218:14 0.00220148
34 *122:14 *218:14 9.35794e-06
35 *123:8 *612:DIODE 2.55889e-05
36 *123:8 *218:76 2.79421e-05
37 *132:18 *218:34 9.09469e-06
38 *136:50 *218:34 0
39 *141:26 *612:DIODE 0.000209808
40 *141:26 *218:76 9.41642e-05
41 *151:71 *218:50 4.30573e-05
42 *151:92 *218:50 0.000796681
43 *153:20 *218:34 9.09469e-06
44 *153:20 *218:50 0.000300187
45 *167:38 *218:50 0.00110502
46 *167:48 *218:14 0
47 *172:21 *218:50 6.1271e-06
48 *181:22 *218:76 0.000150611
49 *196:44 *218:34 0
50 *199:116 *218:58 0.000181114
51 *199:122 *218:58 0.000437886
52 *202:62 *218:50 6.32026e-05
53 *205:58 *218:50 6.50395e-05
54 *210:90 *218:50 0.000189704
55 *215:10 *612:DIODE 7.27282e-05
56 *217:22 *218:50 2.37871e-05
*RES
1 *2295:X *218:14 46.7821 
2 *218:14 *218:34 26.4909 
3 *218:34 *218:50 47.6476 
4 *218:50 *218:58 28.1786 
5 *218:58 *617:DIODE 9.3 
6 *218:58 *2394:A 9.83571 
7 *218:34 *218:76 32.5893 
8 *218:76 *2378:A 9.3 
9 *218:76 *612:DIODE 11.4786 
*END

*D_NET *219 0.0170822
*CONN
*I *2395:A I *D sky130_fd_sc_hd__buf_1
*I *618:DIODE I *D sky130_fd_sc_hd__diode_2
*I *2298:X O *D sky130_fd_sc_hd__buf_1
*CAP
1 *2395:A 7.52446e-05
2 *618:DIODE 0
3 *2298:X 0.00113958
4 *219:26 0.0018015
5 *219:24 0.00331115
6 *219:16 0.00272447
7 *219:24 *2292:B1 0.00013403
8 *489:DIODE *219:24 3.30352e-05
9 *490:DIODE *219:24 9.41642e-05
10 *2292:A2 *219:16 0
11 *2292:A2 *219:24 0.000142856
12 *2301:A *219:26 3.67257e-05
13 *2367:D *219:16 0.000647979
14 *2367:RESET_B *219:16 0.000227539
15 *2371:D *219:16 0.000120368
16 *2373:CLK *219:26 9.41642e-05
17 *2373:D *219:26 0.000507015
18 *35:14 *219:16 0.000513633
19 *35:22 *219:26 0.000120983
20 *51:22 *219:24 0.00014576
21 *60:16 *219:24 0.000193526
22 *74:10 *219:16 0
23 *115:34 *219:16 0.000226493
24 *143:20 *219:26 0.00111072
25 *166:10 *219:24 5.52302e-05
26 *166:30 *219:16 0.000389736
27 *169:125 *219:26 0.000159192
28 *170:8 *219:26 0.000183726
29 *171:116 *219:26 0.00144519
30 *178:16 *219:26 0.000568953
31 *179:8 *219:26 7.40432e-05
32 *182:36 *219:16 3.99614e-06
33 *182:36 *219:24 8.28904e-05
34 *182:46 *219:24 1.98839e-05
35 *188:42 *219:16 0.000389736
36 *198:14 *219:26 0.00030873
*RES
1 *2298:X *219:16 45.7643 
2 *219:16 *219:24 29.1429 
3 *219:24 *219:26 42.8393 
4 *219:26 *618:DIODE 9.3 
5 *219:26 *2395:A 10.675 
*END

*D_NET *220 0.0179094
*CONN
*I *485:DIODE I *D sky130_fd_sc_hd__diode_2
*I *2292:B1 I *D sky130_fd_sc_hd__o21ai_4
*I *491:DIODE I *D sky130_fd_sc_hd__diode_2
*I *473:DIODE I *D sky130_fd_sc_hd__diode_2
*I *2284:A I *D sky130_fd_sc_hd__inv_2
*I *2289:A I *D sky130_fd_sc_hd__and3_1
*I *2396:A I *D sky130_fd_sc_hd__buf_1
*I *619:DIODE I *D sky130_fd_sc_hd__diode_2
*I *2283:X O *D sky130_fd_sc_hd__buf_2
*CAP
1 *485:DIODE 0
2 *2292:B1 0.000122587
3 *491:DIODE 4.70928e-05
4 *473:DIODE 0
5 *2284:A 3.60748e-05
6 *2289:A 0
7 *2396:A 0
8 *619:DIODE 3.5147e-05
9 *2283:X 0.00193773
10 *220:73 0.000253771
11 *220:59 0.000523811
12 *220:53 0.00080739
13 *220:42 0.000302004
14 *220:38 8.95684e-05
15 *220:36 0.00253075
16 *220:14 0.000501372
17 *220:8 0.00491158
18 seg[3] *220:8 2.16899e-05
19 *489:DIODE *491:DIODE 2.59355e-05
20 *489:DIODE *2292:B1 9.41642e-05
21 *552:DIODE *220:36 6.06709e-05
22 *2188:B *220:59 2.80255e-05
23 *2197:C *220:59 0.000119458
24 *2197:D *220:59 3.6205e-05
25 *2289:C *220:42 0.000141729
26 *2289:C *220:53 5.14441e-05
27 *2343:CLK *220:36 0.000167876
28 *2343:RESET_B *220:36 0.000305783
29 *85:8 *220:36 0.0013338
30 *85:8 *220:38 2.12087e-05
31 *85:8 *220:42 5.90743e-05
32 *85:8 *220:53 0.000430305
33 *97:24 *220:59 4.36551e-06
34 *108:26 *220:8 0
35 *156:101 *2284:A 9.87041e-05
36 *156:101 *220:59 0.000119251
37 *162:8 *220:59 0
38 *165:10 *220:53 0.000649011
39 *166:10 *2292:B1 5.71472e-05
40 *182:36 *2292:B1 0.0002302
41 *187:12 *220:8 0.000381703
42 *197:20 *2292:B1 0
43 *197:20 *220:59 0
44 *197:20 *220:73 0
45 *198:28 *2292:B1 6.65445e-05
46 *198:28 *220:59 0.000307286
47 *198:28 *220:73 0.000140368
48 *203:26 *2284:A 0.000184503
49 *203:26 *220:59 0.00022887
50 *205:8 *220:36 0.000137983
51 *205:28 *220:59 0.000144139
52 *208:66 *220:59 2.90582e-05
53 *219:24 *2292:B1 0.00013403
*RES
1 *2283:X *220:8 49.1393 
2 *220:8 *220:14 12.75 
3 *220:14 *619:DIODE 9.83571 
4 *220:14 *2396:A 9.3 
5 *220:8 *220:36 49.5536 
6 *220:36 *220:38 0.535714 
7 *220:38 *220:42 2.19643 
8 *220:42 *2289:A 9.3 
9 *220:42 *220:53 12.8571 
10 *220:53 *220:59 16.5179 
11 *220:59 *2284:A 11.0679 
12 *220:59 *473:DIODE 9.3 
13 *220:53 *220:73 1.94643 
14 *220:73 *491:DIODE 14.3357 
15 *220:73 *2292:B1 17.8357 
16 *220:38 *485:DIODE 9.3 
*END

*D_NET *221 0.014905
*CONN
*I *2397:A I *D sky130_fd_sc_hd__buf_1
*I *620:DIODE I *D sky130_fd_sc_hd__diode_2
*I *2299:Y O *D sky130_fd_sc_hd__o31ai_2
*CAP
1 *2397:A 0.000111201
2 *620:DIODE 0.000117814
3 *2299:Y 0.000272351
4 *221:20 0.000421028
5 *221:16 0.00275235
6 *221:14 0.00582068
7 *221:10 0.00353269
8 seg[2] *221:16 1.94879e-05
9 seg[4] *221:16 1.94879e-05
10 seg[6] *620:DIODE 0.000143375
11 seg[6] *2397:A 5.45307e-05
12 *2376:CLK *221:14 2.79421e-05
13 *2376:D *221:14 8.19856e-05
14 *2376:RESET_B *221:14 2.25966e-05
15 *130:38 *221:10 0.000260042
16 *130:46 *221:14 9.58632e-05
17 *134:105 *221:10 0.000589559
18 *178:52 *221:14 2.79421e-05
19 *180:58 *221:10 4.28535e-05
20 *182:14 *221:14 0.000344983
21 *204:76 *221:10 0.000146254
*RES
1 *2299:Y *221:10 26.925 
2 *221:10 *221:14 41.5893 
3 *221:14 *221:16 48.6964 
4 *221:16 *221:20 7.08929 
5 *221:20 *620:DIODE 11.0679 
6 *221:20 *2397:A 11.6929 
*END
