*SPEF "ieee 1481-1999"
*DESIGN "lab3"
*DATE "20:36:30 Sunday May 25, 2025"
*VENDOR "The OpenROAD Project"
*PROGRAM "OpenROAD"
*VERSION "b16bda7e82721d10566ff7e2b68f1ff0be9f9e38"
*DESIGN_FLOW "NAME_SCOPE LOCAL" "PIN_CAP NONE"
*DIVIDER /
*DELIMITER :
*BUS_DELIMITER []
*T_UNIT 1 NS
*C_UNIT 1 PF
*R_UNIT 1 OHM
*L_UNIT 1 HENRY

*NAME_MAP
*3 net8
*4 net9
*5 net10
*6 net11
*7 clk
*8 rst_button
*9 seg[0]
*10 seg[1]
*11 seg[2]
*12 seg[3]
*13 seg[4]
*14 seg[5]
*15 seg[6]
*16 _000_
*17 _001_
*18 _002_
*19 _003_
*20 _004_
*21 _005_
*22 _006_
*23 _007_
*24 _008_
*25 _009_
*26 _010_
*27 _011_
*28 _012_
*29 _013_
*30 _014_
*31 _015_
*32 _016_
*33 _017_
*34 _018_
*35 _019_
*36 _020_
*37 _021_
*38 _022_
*39 _023_
*40 _024_
*41 _025_
*42 _026_
*43 _027_
*44 _028_
*45 _029_
*46 _030_
*47 _031_
*48 _032_
*49 _033_
*50 _034_
*51 _035_
*52 _036_
*53 _037_
*54 _038_
*55 _039_
*56 _040_
*57 _041_
*58 _042_
*59 _043_
*60 _044_
*61 _045_
*62 _046_
*63 _047_
*64 _048_
*65 _049_
*66 _050_
*67 _051_
*68 _052_
*69 _053_
*70 _054_
*71 _055_
*72 _056_
*73 _057_
*74 _058_
*75 _059_
*76 _060_
*77 _061_
*78 _062_
*79 _063_
*80 _064_
*81 _065_
*82 _066_
*83 _067_
*84 _068_
*85 _069_
*86 _070_
*87 _071_
*88 _072_
*89 _073_
*90 _074_
*91 _075_
*92 _076_
*93 _077_
*94 _078_
*95 _079_
*96 _080_
*97 _081_
*98 _082_
*99 _083_
*100 _084_
*101 _085_
*102 _086_
*103 _087_
*104 _088_
*105 _089_
*106 _090_
*107 _091_
*108 _092_
*109 _093_
*110 _094_
*111 _095_
*112 _096_
*113 _097_
*114 _098_
*115 _099_
*116 _100_
*117 _101_
*118 _102_
*119 _103_
*120 _104_
*121 _105_
*122 _106_
*123 _107_
*124 _108_
*125 _109_
*126 _110_
*127 _111_
*128 _112_
*129 _113_
*130 _114_
*131 _115_
*132 _116_
*133 _117_
*134 _118_
*135 _119_
*136 _120_
*137 _121_
*138 _122_
*139 _123_
*140 _124_
*141 _125_
*142 _126_
*143 _127_
*144 _128_
*145 _129_
*146 _130_
*147 _131_
*148 _132_
*149 _133_
*150 _134_
*151 _135_
*152 _136_
*153 _137_
*154 _138_
*155 _139_
*156 _140_
*157 _141_
*158 _142_
*159 _143_
*160 _144_
*161 _145_
*162 _146_
*163 _147_
*164 _148_
*165 _149_
*166 _150_
*167 _151_
*168 _152_
*169 _153_
*170 _154_
*171 _155_
*172 _156_
*173 clknet_0_clk
*174 clknet_2_0__leaf_clk
*175 clknet_2_1__leaf_clk
*176 clknet_2_2__leaf_clk
*177 clknet_2_3__leaf_clk
*178 counter\.clk
*179 counter\.count\[0\]
*180 counter\.count\[1\]
*181 counter\.count\[2\]
*182 counter\.count\[3\]
*183 div\.count\[0\]
*184 div\.count\[10\]
*185 div\.count\[11\]
*186 div\.count\[12\]
*187 div\.count\[13\]
*188 div\.count\[14\]
*189 div\.count\[15\]
*190 div\.count\[16\]
*191 div\.count\[17\]
*192 div\.count\[18\]
*193 div\.count\[19\]
*194 div\.count\[1\]
*195 div\.count\[20\]
*196 div\.count\[21\]
*197 div\.count\[22\]
*198 div\.count\[23\]
*199 div\.count\[24\]
*200 div\.count\[25\]
*201 div\.count\[26\]
*202 div\.count\[27\]
*203 div\.count\[28\]
*204 div\.count\[29\]
*205 div\.count\[2\]
*206 div\.count\[30\]
*207 div\.count\[31\]
*208 div\.count\[3\]
*209 div\.count\[4\]
*210 div\.count\[5\]
*211 div\.count\[6\]
*212 div\.count\[7\]
*213 div\.count\[8\]
*214 div\.count\[9\]
*215 net1
*216 net2
*217 net3
*218 net4
*219 net5
*220 net6
*221 net7
*222 ANTENNA__157__A
*223 ANTENNA__157__B
*224 ANTENNA__157__C
*225 ANTENNA__157__D_N
*226 ANTENNA__158__A
*227 ANTENNA__158__B
*228 ANTENNA__158__C
*229 ANTENNA__158__D
*230 ANTENNA__159__A
*231 ANTENNA__159__B
*232 ANTENNA__159__C
*233 ANTENNA__159__D
*234 ANTENNA__160__A
*235 ANTENNA__160__B
*236 ANTENNA__160__C
*237 ANTENNA__160__D_N
*238 ANTENNA__161__A
*239 ANTENNA__162__B
*240 ANTENNA__162__C
*241 ANTENNA__162__D
*242 ANTENNA__163__A
*243 ANTENNA__163__B
*244 ANTENNA__163__C
*245 ANTENNA__164__A
*246 ANTENNA__164__B
*247 ANTENNA__164__C
*248 ANTENNA__165__A
*249 ANTENNA__165__B
*250 ANTENNA__165__C
*251 ANTENNA__165__D_N
*252 ANTENNA__166__A
*253 ANTENNA__166__B
*254 ANTENNA__166__C
*255 ANTENNA__166__D_N
*256 ANTENNA__167__A
*257 ANTENNA__167__B
*258 ANTENNA__168__A
*259 ANTENNA__168__B
*260 ANTENNA__169__A_N
*261 ANTENNA__169__B
*262 ANTENNA__170__A
*263 ANTENNA__171__A
*264 ANTENNA__171__B
*265 ANTENNA__172__A
*266 ANTENNA__172__B
*267 ANTENNA__173__A
*268 ANTENNA__173__B
*269 ANTENNA__174__A
*270 ANTENNA__175__A
*271 ANTENNA__175__B
*272 ANTENNA__176__A
*273 ANTENNA__176__B
*274 ANTENNA__176__C
*275 ANTENNA__176__D
*276 ANTENNA__178__A1
*277 ANTENNA__178__A2
*278 ANTENNA__178__A3
*279 ANTENNA__178__B1
*280 ANTENNA__179__A_N
*281 ANTENNA__180__A
*282 ANTENNA__181__A
*283 ANTENNA__181__B
*284 ANTENNA__182__A
*285 ANTENNA__182__B
*286 ANTENNA__182__C
*287 ANTENNA__183__A1
*288 ANTENNA__183__A2
*289 ANTENNA__183__B1
*290 ANTENNA__184__A
*291 ANTENNA__184__B
*292 ANTENNA__185__A
*293 ANTENNA__185__B
*294 ANTENNA__186__A
*295 ANTENNA__186__B
*296 ANTENNA__187__A
*297 ANTENNA__187__B
*298 ANTENNA__187__C
*299 ANTENNA__188__A
*300 ANTENNA__189__A
*301 ANTENNA__190__A
*302 ANTENNA__190__B
*303 ANTENNA__190__C
*304 ANTENNA__190__D
*305 ANTENNA__191__A
*306 ANTENNA__191__B
*307 ANTENNA__192__A1
*308 ANTENNA__192__A2
*309 ANTENNA__192__B1
*310 ANTENNA__193__A1
*311 ANTENNA__193__A2
*312 ANTENNA__193__B1
*313 ANTENNA__194__A1
*314 ANTENNA__194__A2
*315 ANTENNA__195__A
*316 ANTENNA__195__B
*317 ANTENNA__195__C
*318 ANTENNA__195__D
*319 ANTENNA__197__A
*320 ANTENNA__197__C
*321 ANTENNA__197__D_N
*322 ANTENNA__198__A
*323 ANTENNA__198__B
*324 ANTENNA__198__C
*325 ANTENNA__198__D
*326 ANTENNA__199__A
*327 ANTENNA__200__A1
*328 ANTENNA__200__A2
*329 ANTENNA__200__A3
*330 ANTENNA__200__B1
*331 ANTENNA__201__A
*332 ANTENNA__201__B
*333 ANTENNA__202__A
*334 ANTENNA__203__A
*335 ANTENNA__203__B
*336 ANTENNA__204__A1
*337 ANTENNA__204__A2
*338 ANTENNA__204__B1
*339 ANTENNA__205__A
*340 ANTENNA__205__B
*341 ANTENNA__205__C
*342 ANTENNA__206__A
*343 ANTENNA__206__B
*344 ANTENNA__206__C
*345 ANTENNA__207__A
*346 ANTENNA__208__A
*347 ANTENNA__208__B
*348 ANTENNA__209__A
*349 ANTENNA__209__B
*350 ANTENNA__209__C
*351 ANTENNA__209__D
*352 ANTENNA__210__A
*353 ANTENNA__210__B
*354 ANTENNA__210__C
*355 ANTENNA__210__D
*356 ANTENNA__211__A
*357 ANTENNA__211__B
*358 ANTENNA__212__A1
*359 ANTENNA__212__B1_N
*360 ANTENNA__213__A
*361 ANTENNA__213__B
*362 ANTENNA__214__A1
*363 ANTENNA__214__A2
*364 ANTENNA__214__B1
*365 ANTENNA__214__C1
*366 ANTENNA__215__A
*367 ANTENNA__215__B
*368 ANTENNA__216__A
*369 ANTENNA__216__B
*370 ANTENNA__216__C
*371 ANTENNA__216__D
*372 ANTENNA__217__A
*373 ANTENNA__217__B
*374 ANTENNA__217__C
*375 ANTENNA__219__A
*376 ANTENNA__219__B
*377 ANTENNA__220__A1
*378 ANTENNA__220__A2
*379 ANTENNA__220__B1
*380 ANTENNA__221__A
*381 ANTENNA__221__B
*382 ANTENNA__221__C
*383 ANTENNA__222__B
*384 ANTENNA__223__A
*385 ANTENNA__223__B
*386 ANTENNA__224__A
*387 ANTENNA__224__B
*388 ANTENNA__224__C
*389 ANTENNA__224__D
*390 ANTENNA__225__A
*391 ANTENNA__225__C
*392 ANTENNA__227__A
*393 ANTENNA__227__B_N
*394 ANTENNA__228__A
*395 ANTENNA__228__B
*396 ANTENNA__228__C
*397 ANTENNA__228__D
*398 ANTENNA__229__A
*399 ANTENNA__229__B
*400 ANTENNA__230__A
*401 ANTENNA__230__B
*402 ANTENNA__231__A
*403 ANTENNA__232__A
*404 ANTENNA__232__B
*405 ANTENNA__232__C
*406 ANTENNA__233__A1
*407 ANTENNA__233__A2
*408 ANTENNA__233__B1
*409 ANTENNA__234__A
*410 ANTENNA__234__B
*411 ANTENNA__235__A
*412 ANTENNA__235__B
*413 ANTENNA__236__A1
*414 ANTENNA__236__A2
*415 ANTENNA__236__B1
*416 ANTENNA__237__A
*417 ANTENNA__237__B
*418 ANTENNA__237__C
*419 ANTENNA__238__A
*420 ANTENNA__238__C
*421 ANTENNA__239__A
*422 ANTENNA__240__A
*423 ANTENNA__240__B
*424 ANTENNA__241__A
*425 ANTENNA__241__B
*426 ANTENNA__241__C
*427 ANTENNA__242__A
*428 ANTENNA__242__B
*429 ANTENNA__242__C
*430 ANTENNA__243__A
*431 ANTENNA__244__A
*432 ANTENNA__244__B
*433 ANTENNA__245__A1
*434 ANTENNA__245__A2
*435 ANTENNA__245__B1
*436 ANTENNA__246__A
*437 ANTENNA__246__B
*438 ANTENNA__246__C
*439 ANTENNA__247__A
*440 ANTENNA__247__B
*441 ANTENNA__248__A
*442 ANTENNA__248__B
*443 ANTENNA__249__A
*444 ANTENNA__249__B
*445 ANTENNA__249__C
*446 ANTENNA__249__D
*447 ANTENNA__250__A
*448 ANTENNA__250__B
*449 ANTENNA__250__C
*450 ANTENNA__250__D
*451 ANTENNA__251__A
*452 ANTENNA__252__A1
*453 ANTENNA__252__B1_N
*454 ANTENNA__253__A
*455 ANTENNA__253__B
*456 ANTENNA__254__A
*457 ANTENNA__254__B
*458 ANTENNA__255__B
*459 ANTENNA__256__A
*460 ANTENNA__256__B
*461 ANTENNA__256__C
*462 ANTENNA__257__A1
*463 ANTENNA__257__B1
*464 ANTENNA__258__A
*465 ANTENNA__258__B
*466 ANTENNA__259__A
*467 ANTENNA__259__B
*468 ANTENNA__259__C
*469 ANTENNA__259__D
*470 ANTENNA__261__A
*471 ANTENNA__261__B
*472 ANTENNA__261__C
*473 ANTENNA__263__A
*474 ANTENNA__264__A1
*475 ANTENNA__264__A2
*476 ANTENNA__264__B1
*477 ANTENNA__265__A
*478 ANTENNA__265__B
*479 ANTENNA__266__A
*480 ANTENNA__266__B
*481 ANTENNA__266__C
*482 ANTENNA__267__A1
*483 ANTENNA__267__A2
*484 ANTENNA__267__B1
*485 ANTENNA__268__A
*486 ANTENNA__268__B
*487 ANTENNA__270__A
*488 ANTENNA__270__B
*489 ANTENNA__271__A1
*490 ANTENNA__271__A2
*491 ANTENNA__271__B1
*492 ANTENNA__272__A
*493 ANTENNA__273__A
*494 ANTENNA__274__A1
*495 ANTENNA__274__A2
*496 ANTENNA__274__B1
*497 ANTENNA__274__C1
*498 ANTENNA__275__A1
*499 ANTENNA__275__A2
*500 ANTENNA__275__B1
*501 ANTENNA__276__A
*502 ANTENNA__276__B
*503 ANTENNA__276__C
*504 ANTENNA__278__A1
*505 ANTENNA__278__A2
*506 ANTENNA__278__A3
*507 ANTENNA__278__B1
*508 ANTENNA__280__A
*509 ANTENNA__281__A
*510 ANTENNA__282__A
*511 ANTENNA__283__A
*512 ANTENNA__284__A
*513 ANTENNA__285__A
*514 ANTENNA__286__A
*515 ANTENNA__287__A
*516 ANTENNA__288__A
*517 ANTENNA__289__A
*518 ANTENNA__290__A
*519 ANTENNA__291__A
*520 ANTENNA__292__A
*521 ANTENNA__293__A
*522 ANTENNA__294__A
*523 ANTENNA__295__A
*524 ANTENNA__296__A
*525 ANTENNA__297__A
*526 ANTENNA__298__A
*527 ANTENNA__299__A
*528 ANTENNA__300__A
*529 ANTENNA__301__A
*530 ANTENNA__302__A
*531 ANTENNA__303__A
*532 ANTENNA__304__A
*533 ANTENNA__305__A
*534 ANTENNA__306__A
*535 ANTENNA__307__A
*536 ANTENNA__308__A
*537 ANTENNA__309__A
*538 ANTENNA__310__A
*539 ANTENNA__311__A
*540 ANTENNA__312__A
*541 ANTENNA__313__A
*542 ANTENNA__314__A
*543 ANTENNA__315__A
*544 ANTENNA__316__A
*545 ANTENNA__317__A
*546 ANTENNA__318__A
*547 ANTENNA__319__A
*548 ANTENNA__320__CLK
*549 ANTENNA__321__CLK
*550 ANTENNA__321__D
*551 ANTENNA__322__CLK
*552 ANTENNA__322__D
*553 ANTENNA__323__CLK
*554 ANTENNA__323__RESET_B
*555 ANTENNA__324__CLK
*556 ANTENNA__324__RESET_B
*557 ANTENNA__325__CLK
*558 ANTENNA__326__CLK
*559 ANTENNA__326__RESET_B
*560 ANTENNA__327__CLK
*561 ANTENNA__328__CLK
*562 ANTENNA__328__RESET_B
*563 ANTENNA__329__CLK
*564 ANTENNA__330__CLK
*565 ANTENNA__330__D
*566 ANTENNA__331__CLK
*567 ANTENNA__332__CLK
*568 ANTENNA__333__CLK
*569 ANTENNA__333__RESET_B
*570 ANTENNA__334__CLK
*571 ANTENNA__334__RESET_B
*572 ANTENNA__335__CLK
*573 ANTENNA__335__D
*574 ANTENNA__335__RESET_B
*575 ANTENNA__336__CLK
*576 ANTENNA__337__CLK
*577 ANTENNA__337__D
*578 ANTENNA__338__CLK
*579 ANTENNA__339__CLK
*580 ANTENNA__339__D
*581 ANTENNA__339__RESET_B
*582 ANTENNA__340__CLK
*583 ANTENNA__341__CLK
*584 ANTENNA__341__D
*585 ANTENNA__341__RESET_B
*586 ANTENNA__342__CLK
*587 ANTENNA__342__D
*588 ANTENNA__342__RESET_B
*589 ANTENNA__343__CLK
*590 ANTENNA__343__D
*591 ANTENNA__343__RESET_B
*592 ANTENNA__344__CLK
*593 ANTENNA__344__D
*594 ANTENNA__345__CLK
*595 ANTENNA__345__D
*596 ANTENNA__346__CLK
*597 ANTENNA__347__CLK
*598 ANTENNA__348__CLK
*599 ANTENNA__348__RESET_B
*600 ANTENNA__349__CLK
*601 ANTENNA__349__D
*602 ANTENNA__350__CLK
*603 ANTENNA__350__RESET_B
*604 ANTENNA__351__CLK
*605 ANTENNA__352__CLK
*606 ANTENNA__353__CLK
*607 ANTENNA__353__D
*608 ANTENNA__354__CLK
*609 ANTENNA__354__D
*610 ANTENNA__355__CLK
*611 ANTENNA__356__CLK
*612 ANTENNA__361__A
*613 ANTENNA_clkload0_A
*614 ANTENNA_clkload1_A
*615 ANTENNA_clkload2_A
*616 ANTENNA_output3_A
*617 ANTENNA_output4_A
*618 ANTENNA_output5_A
*619 ANTENNA_output6_A
*620 ANTENNA_output7_A
*621 FILLER_0_0_101
*622 FILLER_0_0_108
*623 FILLER_0_0_113
*624 FILLER_0_0_125
*625 FILLER_0_0_137
*626 FILLER_0_0_141
*627 FILLER_0_0_147
*628 FILLER_0_0_15
*629 FILLER_0_0_151
*630 FILLER_0_0_163
*631 FILLER_0_0_167
*632 FILLER_0_0_169
*633 FILLER_0_0_181
*634 FILLER_0_0_193
*635 FILLER_0_0_197
*636 FILLER_0_0_204
*637 FILLER_0_0_208
*638 FILLER_0_0_220
*639 FILLER_0_0_225
*640 FILLER_0_0_23
*641 FILLER_0_0_27
*642 FILLER_0_0_29
*643 FILLER_0_0_3
*644 FILLER_0_0_80
*645 FILLER_0_0_85
*646 FILLER_0_0_89
*647 FILLER_0_10_109
*648 FILLER_0_10_123
*649 FILLER_0_10_133
*650 FILLER_0_10_137
*651 FILLER_0_10_141
*652 FILLER_0_10_145
*653 FILLER_0_10_149
*654 FILLER_0_10_15
*655 FILLER_0_10_174
*656 FILLER_0_10_178
*657 FILLER_0_10_185
*658 FILLER_0_10_189
*659 FILLER_0_10_195
*660 FILLER_0_10_197
*661 FILLER_0_10_203
*662 FILLER_0_10_207
*663 FILLER_0_10_219
*664 FILLER_0_10_225
*665 FILLER_0_10_231
*666 FILLER_0_10_27
*667 FILLER_0_10_29
*668 FILLER_0_10_3
*669 FILLER_0_10_45
*670 FILLER_0_10_49
*671 FILLER_0_10_53
*672 FILLER_0_10_65
*673 FILLER_0_10_77
*674 FILLER_0_10_80
*675 FILLER_0_10_85
*676 FILLER_0_10_97
*677 FILLER_0_11_110
*678 FILLER_0_11_12
*679 FILLER_0_11_136
*680 FILLER_0_11_140
*681 FILLER_0_11_148
*682 FILLER_0_11_151
*683 FILLER_0_11_157
*684 FILLER_0_11_165
*685 FILLER_0_11_169
*686 FILLER_0_11_181
*687 FILLER_0_11_193
*688 FILLER_0_11_205
*689 FILLER_0_11_217
*690 FILLER_0_11_223
*691 FILLER_0_11_225
*692 FILLER_0_11_24
*693 FILLER_0_11_3
*694 FILLER_0_11_39
*695 FILLER_0_11_43
*696 FILLER_0_11_55
*697 FILLER_0_11_57
*698 FILLER_0_11_65
*699 FILLER_0_11_76
*700 FILLER_0_11_82
*701 FILLER_0_11_86
*702 FILLER_0_11_9
*703 FILLER_0_11_98
*704 FILLER_0_12_10
*705 FILLER_0_12_108
*706 FILLER_0_12_120
*707 FILLER_0_12_132
*708 FILLER_0_12_141
*709 FILLER_0_12_147
*710 FILLER_0_12_151
*711 FILLER_0_12_155
*712 FILLER_0_12_16
*713 FILLER_0_12_165
*714 FILLER_0_12_179
*715 FILLER_0_12_191
*716 FILLER_0_12_195
*717 FILLER_0_12_197
*718 FILLER_0_12_20
*719 FILLER_0_12_209
*720 FILLER_0_12_213
*721 FILLER_0_12_218
*722 FILLER_0_12_222
*723 FILLER_0_12_230
*724 FILLER_0_12_29
*725 FILLER_0_12_41
*726 FILLER_0_12_52
*727 FILLER_0_12_60
*728 FILLER_0_12_88
*729 FILLER_0_12_92
*730 FILLER_0_12_96
*731 FILLER_0_13_105
*732 FILLER_0_13_108
*733 FILLER_0_13_113
*734 FILLER_0_13_125
*735 FILLER_0_13_130
*736 FILLER_0_13_138
*737 FILLER_0_13_15
*738 FILLER_0_13_165
*739 FILLER_0_13_177
*740 FILLER_0_13_181
*741 FILLER_0_13_185
*742 FILLER_0_13_189
*743 FILLER_0_13_201
*744 FILLER_0_13_213
*745 FILLER_0_13_221
*746 FILLER_0_13_225
*747 FILLER_0_13_27
*748 FILLER_0_13_3
*749 FILLER_0_13_39
*750 FILLER_0_13_51
*751 FILLER_0_13_55
*752 FILLER_0_13_57
*753 FILLER_0_13_69
*754 FILLER_0_13_81
*755 FILLER_0_13_93
*756 FILLER_0_14_101
*757 FILLER_0_14_126
*758 FILLER_0_14_15
*759 FILLER_0_14_174
*760 FILLER_0_14_178
*761 FILLER_0_14_186
*762 FILLER_0_14_194
*763 FILLER_0_14_197
*764 FILLER_0_14_209
*765 FILLER_0_14_221
*766 FILLER_0_14_27
*767 FILLER_0_14_29
*768 FILLER_0_14_3
*769 FILLER_0_14_37
*770 FILLER_0_14_49
*771 FILLER_0_14_61
*772 FILLER_0_14_73
*773 FILLER_0_14_81
*774 FILLER_0_14_85
*775 FILLER_0_14_97
*776 FILLER_0_15_111
*777 FILLER_0_15_113
*778 FILLER_0_15_125
*779 FILLER_0_15_137
*780 FILLER_0_15_141
*781 FILLER_0_15_145
*782 FILLER_0_15_149
*783 FILLER_0_15_15
*784 FILLER_0_15_155
*785 FILLER_0_15_158
*786 FILLER_0_15_162
*787 FILLER_0_15_166
*788 FILLER_0_15_169
*789 FILLER_0_15_177
*790 FILLER_0_15_182
*791 FILLER_0_15_209
*792 FILLER_0_15_213
*793 FILLER_0_15_221
*794 FILLER_0_15_225
*795 FILLER_0_15_27
*796 FILLER_0_15_3
*797 FILLER_0_15_36
*798 FILLER_0_15_43
*799 FILLER_0_15_47
*800 FILLER_0_15_55
*801 FILLER_0_15_57
*802 FILLER_0_15_69
*803 FILLER_0_15_81
*804 FILLER_0_15_93
*805 FILLER_0_15_99
*806 FILLER_0_16_109
*807 FILLER_0_16_12
*808 FILLER_0_16_121
*809 FILLER_0_16_133
*810 FILLER_0_16_139
*811 FILLER_0_16_141
*812 FILLER_0_16_153
*813 FILLER_0_16_165
*814 FILLER_0_16_177
*815 FILLER_0_16_189
*816 FILLER_0_16_195
*817 FILLER_0_16_197
*818 FILLER_0_16_201
*819 FILLER_0_16_205
*820 FILLER_0_16_208
*821 FILLER_0_16_24
*822 FILLER_0_16_29
*823 FILLER_0_16_3
*824 FILLER_0_16_35
*825 FILLER_0_16_41
*826 FILLER_0_16_54
*827 FILLER_0_16_58
*828 FILLER_0_16_64
*829 FILLER_0_16_68
*830 FILLER_0_16_71
*831 FILLER_0_16_8
*832 FILLER_0_16_83
*833 FILLER_0_16_85
*834 FILLER_0_16_97
*835 FILLER_0_17_103
*836 FILLER_0_17_111
*837 FILLER_0_17_113
*838 FILLER_0_17_125
*839 FILLER_0_17_133
*840 FILLER_0_17_137
*841 FILLER_0_17_149
*842 FILLER_0_17_15
*843 FILLER_0_17_161
*844 FILLER_0_17_167
*845 FILLER_0_17_169
*846 FILLER_0_17_181
*847 FILLER_0_17_193
*848 FILLER_0_17_199
*849 FILLER_0_17_225
*850 FILLER_0_17_27
*851 FILLER_0_17_3
*852 FILLER_0_17_51
*853 FILLER_0_17_69
*854 FILLER_0_17_95
*855 FILLER_0_17_99
*856 FILLER_0_18_128
*857 FILLER_0_18_132
*858 FILLER_0_18_141
*859 FILLER_0_18_145
*860 FILLER_0_18_15
*861 FILLER_0_18_157
*862 FILLER_0_18_169
*863 FILLER_0_18_181
*864 FILLER_0_18_19
*865 FILLER_0_18_193
*866 FILLER_0_18_197
*867 FILLER_0_18_209
*868 FILLER_0_18_221
*869 FILLER_0_18_227
*870 FILLER_0_18_25
*871 FILLER_0_18_29
*872 FILLER_0_18_3
*873 FILLER_0_18_36
*874 FILLER_0_18_48
*875 FILLER_0_18_53
*876 FILLER_0_18_59
*877 FILLER_0_18_62
*878 FILLER_0_18_74
*879 FILLER_0_18_82
*880 FILLER_0_18_85
*881 FILLER_0_18_97
*882 FILLER_0_19_105
*883 FILLER_0_19_111
*884 FILLER_0_19_113
*885 FILLER_0_19_125
*886 FILLER_0_19_137
*887 FILLER_0_19_140
*888 FILLER_0_19_15
*889 FILLER_0_19_150
*890 FILLER_0_19_154
*891 FILLER_0_19_169
*892 FILLER_0_19_179
*893 FILLER_0_19_183
*894 FILLER_0_19_195
*895 FILLER_0_19_207
*896 FILLER_0_19_219
*897 FILLER_0_19_223
*898 FILLER_0_19_225
*899 FILLER_0_19_23
*900 FILLER_0_19_26
*901 FILLER_0_19_3
*902 FILLER_0_19_36
*903 FILLER_0_19_48
*904 FILLER_0_19_57
*905 FILLER_0_19_69
*906 FILLER_0_19_81
*907 FILLER_0_19_93
*908 FILLER_0_1_109
*909 FILLER_0_1_11
*910 FILLER_0_1_113
*911 FILLER_0_1_125
*912 FILLER_0_1_137
*913 FILLER_0_1_169
*914 FILLER_0_1_173
*915 FILLER_0_1_185
*916 FILLER_0_1_199
*917 FILLER_0_1_21
*918 FILLER_0_1_228
*919 FILLER_0_1_232
*920 FILLER_0_1_25
*921 FILLER_0_1_29
*922 FILLER_0_1_3
*923 FILLER_0_1_33
*924 FILLER_0_1_45
*925 FILLER_0_1_49
*926 FILLER_0_1_52
*927 FILLER_0_1_57
*928 FILLER_0_1_62
*929 FILLER_0_1_66
*930 FILLER_0_1_78
*931 FILLER_0_1_90
*932 FILLER_0_1_97
*933 FILLER_0_20_103
*934 FILLER_0_20_11
*935 FILLER_0_20_115
*936 FILLER_0_20_129
*937 FILLER_0_20_137
*938 FILLER_0_20_141
*939 FILLER_0_20_15
*940 FILLER_0_20_153
*941 FILLER_0_20_157
*942 FILLER_0_20_183
*943 FILLER_0_20_195
*944 FILLER_0_20_197
*945 FILLER_0_20_209
*946 FILLER_0_20_221
*947 FILLER_0_20_24
*948 FILLER_0_20_3
*949 FILLER_0_20_34
*950 FILLER_0_20_40
*951 FILLER_0_20_44
*952 FILLER_0_20_56
*953 FILLER_0_20_68
*954 FILLER_0_20_7
*955 FILLER_0_20_80
*956 FILLER_0_20_91
*957 FILLER_0_21_101
*958 FILLER_0_21_106
*959 FILLER_0_21_110
*960 FILLER_0_21_113
*961 FILLER_0_21_121
*962 FILLER_0_21_127
*963 FILLER_0_21_132
*964 FILLER_0_21_136
*965 FILLER_0_21_144
*966 FILLER_0_21_15
*967 FILLER_0_21_155
*968 FILLER_0_21_159
*969 FILLER_0_21_163
*970 FILLER_0_21_167
*971 FILLER_0_21_169
*972 FILLER_0_21_181
*973 FILLER_0_21_193
*974 FILLER_0_21_205
*975 FILLER_0_21_211
*976 FILLER_0_21_219
*977 FILLER_0_21_228
*978 FILLER_0_21_27
*979 FILLER_0_21_3
*980 FILLER_0_21_39
*981 FILLER_0_21_51
*982 FILLER_0_21_55
*983 FILLER_0_21_57
*984 FILLER_0_21_69
*985 FILLER_0_21_81
*986 FILLER_0_21_93
*987 FILLER_0_22_105
*988 FILLER_0_22_138
*989 FILLER_0_22_141
*990 FILLER_0_22_149
*991 FILLER_0_22_15
*992 FILLER_0_22_152
*993 FILLER_0_22_164
*994 FILLER_0_22_176
*995 FILLER_0_22_188
*996 FILLER_0_22_197
*997 FILLER_0_22_205
*998 FILLER_0_22_209
*999 FILLER_0_22_232
*1000 FILLER_0_22_27
*1001 FILLER_0_22_29
*1002 FILLER_0_22_3
*1003 FILLER_0_22_33
*1004 FILLER_0_22_37
*1005 FILLER_0_22_41
*1006 FILLER_0_22_53
*1007 FILLER_0_22_65
*1008 FILLER_0_22_77
*1009 FILLER_0_22_83
*1010 FILLER_0_22_85
*1011 FILLER_0_22_97
*1012 FILLER_0_23_105
*1013 FILLER_0_23_111
*1014 FILLER_0_23_133
*1015 FILLER_0_23_137
*1016 FILLER_0_23_15
*1017 FILLER_0_23_150
*1018 FILLER_0_23_154
*1019 FILLER_0_23_158
*1020 FILLER_0_23_166
*1021 FILLER_0_23_169
*1022 FILLER_0_23_173
*1023 FILLER_0_23_177
*1024 FILLER_0_23_181
*1025 FILLER_0_23_185
*1026 FILLER_0_23_189
*1027 FILLER_0_23_201
*1028 FILLER_0_23_209
*1029 FILLER_0_23_213
*1030 FILLER_0_23_217
*1031 FILLER_0_23_27
*1032 FILLER_0_23_3
*1033 FILLER_0_23_33
*1034 FILLER_0_23_40
*1035 FILLER_0_23_52
*1036 FILLER_0_23_57
*1037 FILLER_0_23_69
*1038 FILLER_0_23_81
*1039 FILLER_0_23_93
*1040 FILLER_0_24_10
*1041 FILLER_0_24_104
*1042 FILLER_0_24_112
*1043 FILLER_0_24_116
*1044 FILLER_0_24_120
*1045 FILLER_0_24_132
*1046 FILLER_0_24_136
*1047 FILLER_0_24_14
*1048 FILLER_0_24_151
*1049 FILLER_0_24_155
*1050 FILLER_0_24_159
*1051 FILLER_0_24_167
*1052 FILLER_0_24_178
*1053 FILLER_0_24_188
*1054 FILLER_0_24_192
*1055 FILLER_0_24_197
*1056 FILLER_0_24_205
*1057 FILLER_0_24_232
*1058 FILLER_0_24_26
*1059 FILLER_0_24_29
*1060 FILLER_0_24_39
*1061 FILLER_0_24_43
*1062 FILLER_0_24_47
*1063 FILLER_0_24_51
*1064 FILLER_0_24_6
*1065 FILLER_0_24_63
*1066 FILLER_0_24_75
*1067 FILLER_0_24_83
*1068 FILLER_0_24_88
*1069 FILLER_0_24_92
*1070 FILLER_0_25_103
*1071 FILLER_0_25_111
*1072 FILLER_0_25_116
*1073 FILLER_0_25_120
*1074 FILLER_0_25_132
*1075 FILLER_0_25_144
*1076 FILLER_0_25_15
*1077 FILLER_0_25_156
*1078 FILLER_0_25_164
*1079 FILLER_0_25_169
*1080 FILLER_0_25_192
*1081 FILLER_0_25_204
*1082 FILLER_0_25_216
*1083 FILLER_0_25_225
*1084 FILLER_0_25_27
*1085 FILLER_0_25_3
*1086 FILLER_0_25_41
*1087 FILLER_0_25_53
*1088 FILLER_0_25_57
*1089 FILLER_0_25_69
*1090 FILLER_0_25_83
*1091 FILLER_0_25_87
*1092 FILLER_0_25_91
*1093 FILLER_0_26_109
*1094 FILLER_0_26_11
*1095 FILLER_0_26_121
*1096 FILLER_0_26_133
*1097 FILLER_0_26_139
*1098 FILLER_0_26_141
*1099 FILLER_0_26_153
*1100 FILLER_0_26_165
*1101 FILLER_0_26_17
*1102 FILLER_0_26_177
*1103 FILLER_0_26_189
*1104 FILLER_0_26_195
*1105 FILLER_0_26_197
*1106 FILLER_0_26_209
*1107 FILLER_0_26_21
*1108 FILLER_0_26_221
*1109 FILLER_0_26_27
*1110 FILLER_0_26_29
*1111 FILLER_0_26_3
*1112 FILLER_0_26_37
*1113 FILLER_0_26_43
*1114 FILLER_0_26_47
*1115 FILLER_0_26_59
*1116 FILLER_0_26_71
*1117 FILLER_0_26_83
*1118 FILLER_0_26_85
*1119 FILLER_0_26_97
*1120 FILLER_0_27_103
*1121 FILLER_0_27_107
*1122 FILLER_0_27_111
*1123 FILLER_0_27_113
*1124 FILLER_0_27_117
*1125 FILLER_0_27_124
*1126 FILLER_0_27_128
*1127 FILLER_0_27_140
*1128 FILLER_0_27_15
*1129 FILLER_0_27_152
*1130 FILLER_0_27_155
*1131 FILLER_0_27_167
*1132 FILLER_0_27_169
*1133 FILLER_0_27_181
*1134 FILLER_0_27_193
*1135 FILLER_0_27_205
*1136 FILLER_0_27_217
*1137 FILLER_0_27_223
*1138 FILLER_0_27_225
*1139 FILLER_0_27_27
*1140 FILLER_0_27_3
*1141 FILLER_0_27_39
*1142 FILLER_0_27_51
*1143 FILLER_0_27_55
*1144 FILLER_0_27_57
*1145 FILLER_0_27_69
*1146 FILLER_0_27_81
*1147 FILLER_0_27_93
*1148 FILLER_0_27_99
*1149 FILLER_0_28_120
*1150 FILLER_0_28_132
*1151 FILLER_0_28_136
*1152 FILLER_0_28_141
*1153 FILLER_0_28_147
*1154 FILLER_0_28_15
*1155 FILLER_0_28_156
*1156 FILLER_0_28_161
*1157 FILLER_0_28_165
*1158 FILLER_0_28_169
*1159 FILLER_0_28_181
*1160 FILLER_0_28_192
*1161 FILLER_0_28_204
*1162 FILLER_0_28_208
*1163 FILLER_0_28_220
*1164 FILLER_0_28_224
*1165 FILLER_0_28_27
*1166 FILLER_0_28_29
*1167 FILLER_0_28_3
*1168 FILLER_0_28_35
*1169 FILLER_0_28_39
*1170 FILLER_0_28_43
*1171 FILLER_0_28_61
*1172 FILLER_0_28_65
*1173 FILLER_0_28_69
*1174 FILLER_0_28_81
*1175 FILLER_0_28_85
*1176 FILLER_0_29_102
*1177 FILLER_0_29_108
*1178 FILLER_0_29_113
*1179 FILLER_0_29_117
*1180 FILLER_0_29_138
*1181 FILLER_0_29_142
*1182 FILLER_0_29_15
*1183 FILLER_0_29_154
*1184 FILLER_0_29_166
*1185 FILLER_0_29_169
*1186 FILLER_0_29_181
*1187 FILLER_0_29_184
*1188 FILLER_0_29_207
*1189 FILLER_0_29_219
*1190 FILLER_0_29_223
*1191 FILLER_0_29_225
*1192 FILLER_0_29_23
*1193 FILLER_0_29_3
*1194 FILLER_0_29_49
*1195 FILLER_0_29_53
*1196 FILLER_0_29_57
*1197 FILLER_0_29_69
*1198 FILLER_0_29_81
*1199 FILLER_0_29_89
*1200 FILLER_0_2_108
*1201 FILLER_0_2_120
*1202 FILLER_0_2_132
*1203 FILLER_0_2_141
*1204 FILLER_0_2_149
*1205 FILLER_0_2_15
*1206 FILLER_0_2_153
*1207 FILLER_0_2_173
*1208 FILLER_0_2_177
*1209 FILLER_0_2_181
*1210 FILLER_0_2_193
*1211 FILLER_0_2_197
*1212 FILLER_0_2_203
*1213 FILLER_0_2_207
*1214 FILLER_0_2_219
*1215 FILLER_0_2_231
*1216 FILLER_0_2_25
*1217 FILLER_0_2_29
*1218 FILLER_0_2_3
*1219 FILLER_0_2_35
*1220 FILLER_0_2_43
*1221 FILLER_0_2_47
*1222 FILLER_0_2_51
*1223 FILLER_0_2_63
*1224 FILLER_0_2_71
*1225 FILLER_0_2_74
*1226 FILLER_0_2_82
*1227 FILLER_0_2_85
*1228 FILLER_0_2_92
*1229 FILLER_0_2_96
*1230 FILLER_0_30_100
*1231 FILLER_0_30_104
*1232 FILLER_0_30_114
*1233 FILLER_0_30_119
*1234 FILLER_0_30_123
*1235 FILLER_0_30_135
*1236 FILLER_0_30_139
*1237 FILLER_0_30_141
*1238 FILLER_0_30_149
*1239 FILLER_0_30_15
*1240 FILLER_0_30_171
*1241 FILLER_0_30_183
*1242 FILLER_0_30_186
*1243 FILLER_0_30_194
*1244 FILLER_0_30_197
*1245 FILLER_0_30_209
*1246 FILLER_0_30_217
*1247 FILLER_0_30_222
*1248 FILLER_0_30_226
*1249 FILLER_0_30_27
*1250 FILLER_0_30_29
*1251 FILLER_0_30_3
*1252 FILLER_0_30_41
*1253 FILLER_0_30_53
*1254 FILLER_0_30_65
*1255 FILLER_0_30_71
*1256 FILLER_0_30_77
*1257 FILLER_0_30_83
*1258 FILLER_0_30_85
*1259 FILLER_0_30_97
*1260 FILLER_0_31_107
*1261 FILLER_0_31_111
*1262 FILLER_0_31_113
*1263 FILLER_0_31_125
*1264 FILLER_0_31_137
*1265 FILLER_0_31_15
*1266 FILLER_0_31_169
*1267 FILLER_0_31_173
*1268 FILLER_0_31_183
*1269 FILLER_0_31_195
*1270 FILLER_0_31_207
*1271 FILLER_0_31_211
*1272 FILLER_0_31_215
*1273 FILLER_0_31_223
*1274 FILLER_0_31_225
*1275 FILLER_0_31_27
*1276 FILLER_0_31_3
*1277 FILLER_0_31_39
*1278 FILLER_0_31_51
*1279 FILLER_0_31_55
*1280 FILLER_0_31_57
*1281 FILLER_0_31_65
*1282 FILLER_0_31_71
*1283 FILLER_0_31_75
*1284 FILLER_0_31_87
*1285 FILLER_0_31_99
*1286 FILLER_0_32_103
*1287 FILLER_0_32_107
*1288 FILLER_0_32_111
*1289 FILLER_0_32_114
*1290 FILLER_0_32_126
*1291 FILLER_0_32_138
*1292 FILLER_0_32_141
*1293 FILLER_0_32_149
*1294 FILLER_0_32_15
*1295 FILLER_0_32_155
*1296 FILLER_0_32_159
*1297 FILLER_0_32_165
*1298 FILLER_0_32_174
*1299 FILLER_0_32_178
*1300 FILLER_0_32_182
*1301 FILLER_0_32_191
*1302 FILLER_0_32_195
*1303 FILLER_0_32_197
*1304 FILLER_0_32_209
*1305 FILLER_0_32_221
*1306 FILLER_0_32_27
*1307 FILLER_0_32_29
*1308 FILLER_0_32_3
*1309 FILLER_0_32_41
*1310 FILLER_0_32_53
*1311 FILLER_0_32_65
*1312 FILLER_0_32_77
*1313 FILLER_0_32_83
*1314 FILLER_0_32_85
*1315 FILLER_0_32_99
*1316 FILLER_0_33_105
*1317 FILLER_0_33_136
*1318 FILLER_0_33_140
*1319 FILLER_0_33_152
*1320 FILLER_0_33_160
*1321 FILLER_0_33_164
*1322 FILLER_0_33_169
*1323 FILLER_0_33_181
*1324 FILLER_0_33_19
*1325 FILLER_0_33_193
*1326 FILLER_0_33_205
*1327 FILLER_0_33_217
*1328 FILLER_0_33_223
*1329 FILLER_0_33_225
*1330 FILLER_0_33_229
*1331 FILLER_0_33_23
*1332 FILLER_0_33_27
*1333 FILLER_0_33_3
*1334 FILLER_0_33_35
*1335 FILLER_0_33_47
*1336 FILLER_0_33_51
*1337 FILLER_0_33_55
*1338 FILLER_0_33_57
*1339 FILLER_0_33_69
*1340 FILLER_0_33_81
*1341 FILLER_0_33_93
*1342 FILLER_0_34_109
*1343 FILLER_0_34_121
*1344 FILLER_0_34_133
*1345 FILLER_0_34_139
*1346 FILLER_0_34_144
*1347 FILLER_0_34_148
*1348 FILLER_0_34_15
*1349 FILLER_0_34_152
*1350 FILLER_0_34_186
*1351 FILLER_0_34_190
*1352 FILLER_0_34_194
*1353 FILLER_0_34_197
*1354 FILLER_0_34_201
*1355 FILLER_0_34_204
*1356 FILLER_0_34_208
*1357 FILLER_0_34_213
*1358 FILLER_0_34_225
*1359 FILLER_0_34_27
*1360 FILLER_0_34_29
*1361 FILLER_0_34_3
*1362 FILLER_0_34_41
*1363 FILLER_0_34_54
*1364 FILLER_0_34_58
*1365 FILLER_0_34_62
*1366 FILLER_0_34_74
*1367 FILLER_0_34_82
*1368 FILLER_0_34_85
*1369 FILLER_0_34_97
*1370 FILLER_0_35_106
*1371 FILLER_0_35_113
*1372 FILLER_0_35_117
*1373 FILLER_0_35_143
*1374 FILLER_0_35_147
*1375 FILLER_0_35_15
*1376 FILLER_0_35_159
*1377 FILLER_0_35_162
*1378 FILLER_0_35_166
*1379 FILLER_0_35_169
*1380 FILLER_0_35_180
*1381 FILLER_0_35_184
*1382 FILLER_0_35_188
*1383 FILLER_0_35_196
*1384 FILLER_0_35_200
*1385 FILLER_0_35_204
*1386 FILLER_0_35_221
*1387 FILLER_0_35_225
*1388 FILLER_0_35_27
*1389 FILLER_0_35_3
*1390 FILLER_0_35_39
*1391 FILLER_0_35_51
*1392 FILLER_0_35_55
*1393 FILLER_0_35_57
*1394 FILLER_0_35_69
*1395 FILLER_0_35_81
*1396 FILLER_0_35_89
*1397 FILLER_0_35_94
*1398 FILLER_0_36_109
*1399 FILLER_0_36_121
*1400 FILLER_0_36_133
*1401 FILLER_0_36_139
*1402 FILLER_0_36_141
*1403 FILLER_0_36_149
*1404 FILLER_0_36_15
*1405 FILLER_0_36_161
*1406 FILLER_0_36_169
*1407 FILLER_0_36_173
*1408 FILLER_0_36_181
*1409 FILLER_0_36_185
*1410 FILLER_0_36_189
*1411 FILLER_0_36_193
*1412 FILLER_0_36_197
*1413 FILLER_0_36_203
*1414 FILLER_0_36_206
*1415 FILLER_0_36_211
*1416 FILLER_0_36_215
*1417 FILLER_0_36_227
*1418 FILLER_0_36_27
*1419 FILLER_0_36_29
*1420 FILLER_0_36_3
*1421 FILLER_0_36_41
*1422 FILLER_0_36_53
*1423 FILLER_0_36_65
*1424 FILLER_0_36_77
*1425 FILLER_0_36_83
*1426 FILLER_0_36_85
*1427 FILLER_0_36_97
*1428 FILLER_0_37_107
*1429 FILLER_0_37_139
*1430 FILLER_0_37_143
*1431 FILLER_0_37_147
*1432 FILLER_0_37_15
*1433 FILLER_0_37_159
*1434 FILLER_0_37_167
*1435 FILLER_0_37_169
*1436 FILLER_0_37_181
*1437 FILLER_0_37_193
*1438 FILLER_0_37_201
*1439 FILLER_0_37_208
*1440 FILLER_0_37_212
*1441 FILLER_0_37_220
*1442 FILLER_0_37_231
*1443 FILLER_0_37_27
*1444 FILLER_0_37_3
*1445 FILLER_0_37_39
*1446 FILLER_0_37_51
*1447 FILLER_0_37_55
*1448 FILLER_0_37_71
*1449 FILLER_0_37_75
*1450 FILLER_0_37_87
*1451 FILLER_0_37_99
*1452 FILLER_0_38_109
*1453 FILLER_0_38_121
*1454 FILLER_0_38_129
*1455 FILLER_0_38_139
*1456 FILLER_0_38_141
*1457 FILLER_0_38_145
*1458 FILLER_0_38_149
*1459 FILLER_0_38_15
*1460 FILLER_0_38_161
*1461 FILLER_0_38_173
*1462 FILLER_0_38_185
*1463 FILLER_0_38_193
*1464 FILLER_0_38_200
*1465 FILLER_0_38_204
*1466 FILLER_0_38_216
*1467 FILLER_0_38_228
*1468 FILLER_0_38_27
*1469 FILLER_0_38_29
*1470 FILLER_0_38_3
*1471 FILLER_0_38_33
*1472 FILLER_0_38_55
*1473 FILLER_0_38_59
*1474 FILLER_0_38_63
*1475 FILLER_0_38_75
*1476 FILLER_0_38_83
*1477 FILLER_0_38_85
*1478 FILLER_0_38_97
*1479 FILLER_0_39_105
*1480 FILLER_0_39_111
*1481 FILLER_0_39_113
*1482 FILLER_0_39_125
*1483 FILLER_0_39_142
*1484 FILLER_0_39_149
*1485 FILLER_0_39_15
*1486 FILLER_0_39_153
*1487 FILLER_0_39_165
*1488 FILLER_0_39_169
*1489 FILLER_0_39_181
*1490 FILLER_0_39_193
*1491 FILLER_0_39_205
*1492 FILLER_0_39_217
*1493 FILLER_0_39_223
*1494 FILLER_0_39_225
*1495 FILLER_0_39_27
*1496 FILLER_0_39_3
*1497 FILLER_0_39_31
*1498 FILLER_0_39_57
*1499 FILLER_0_39_61
*1500 FILLER_0_39_65
*1501 FILLER_0_39_69
*1502 FILLER_0_39_81
*1503 FILLER_0_39_93
*1504 FILLER_0_3_102
*1505 FILLER_0_3_110
*1506 FILLER_0_3_113
*1507 FILLER_0_3_117
*1508 FILLER_0_3_12
*1509 FILLER_0_3_121
*1510 FILLER_0_3_133
*1511 FILLER_0_3_139
*1512 FILLER_0_3_147
*1513 FILLER_0_3_153
*1514 FILLER_0_3_157
*1515 FILLER_0_3_161
*1516 FILLER_0_3_167
*1517 FILLER_0_3_169
*1518 FILLER_0_3_17
*1519 FILLER_0_3_181
*1520 FILLER_0_3_193
*1521 FILLER_0_3_205
*1522 FILLER_0_3_217
*1523 FILLER_0_3_223
*1524 FILLER_0_3_225
*1525 FILLER_0_3_3
*1526 FILLER_0_3_40
*1527 FILLER_0_3_44
*1528 FILLER_0_3_48
*1529 FILLER_0_3_57
*1530 FILLER_0_3_72
*1531 FILLER_0_3_76
*1532 FILLER_0_3_79
*1533 FILLER_0_3_9
*1534 FILLER_0_3_90
*1535 FILLER_0_3_94
*1536 FILLER_0_3_98
*1537 FILLER_0_40_101
*1538 FILLER_0_40_113
*1539 FILLER_0_40_125
*1540 FILLER_0_40_137
*1541 FILLER_0_40_141
*1542 FILLER_0_40_145
*1543 FILLER_0_40_15
*1544 FILLER_0_40_153
*1545 FILLER_0_40_164
*1546 FILLER_0_40_168
*1547 FILLER_0_40_180
*1548 FILLER_0_40_192
*1549 FILLER_0_40_197
*1550 FILLER_0_40_209
*1551 FILLER_0_40_215
*1552 FILLER_0_40_218
*1553 FILLER_0_40_23
*1554 FILLER_0_40_230
*1555 FILLER_0_40_29
*1556 FILLER_0_40_3
*1557 FILLER_0_40_33
*1558 FILLER_0_40_37
*1559 FILLER_0_40_40
*1560 FILLER_0_40_44
*1561 FILLER_0_40_48
*1562 FILLER_0_40_52
*1563 FILLER_0_40_56
*1564 FILLER_0_40_60
*1565 FILLER_0_40_68
*1566 FILLER_0_40_72
*1567 FILLER_0_40_82
*1568 FILLER_0_40_85
*1569 FILLER_0_40_89
*1570 FILLER_0_41_105
*1571 FILLER_0_41_11
*1572 FILLER_0_41_111
*1573 FILLER_0_41_113
*1574 FILLER_0_41_125
*1575 FILLER_0_41_137
*1576 FILLER_0_41_149
*1577 FILLER_0_41_15
*1578 FILLER_0_41_153
*1579 FILLER_0_41_163
*1580 FILLER_0_41_167
*1581 FILLER_0_41_169
*1582 FILLER_0_41_181
*1583 FILLER_0_41_193
*1584 FILLER_0_41_205
*1585 FILLER_0_41_211
*1586 FILLER_0_41_214
*1587 FILLER_0_41_223
*1588 FILLER_0_41_225
*1589 FILLER_0_41_3
*1590 FILLER_0_41_48
*1591 FILLER_0_41_52
*1592 FILLER_0_41_57
*1593 FILLER_0_41_69
*1594 FILLER_0_41_7
*1595 FILLER_0_41_81
*1596 FILLER_0_41_93
*1597 FILLER_0_42_101
*1598 FILLER_0_42_113
*1599 FILLER_0_42_12
*1600 FILLER_0_42_121
*1601 FILLER_0_42_125
*1602 FILLER_0_42_133
*1603 FILLER_0_42_139
*1604 FILLER_0_42_141
*1605 FILLER_0_42_153
*1606 FILLER_0_42_157
*1607 FILLER_0_42_169
*1608 FILLER_0_42_175
*1609 FILLER_0_42_178
*1610 FILLER_0_42_186
*1611 FILLER_0_42_190
*1612 FILLER_0_42_197
*1613 FILLER_0_42_209
*1614 FILLER_0_42_221
*1615 FILLER_0_42_29
*1616 FILLER_0_42_33
*1617 FILLER_0_42_39
*1618 FILLER_0_42_43
*1619 FILLER_0_42_48
*1620 FILLER_0_42_52
*1621 FILLER_0_42_64
*1622 FILLER_0_42_7
*1623 FILLER_0_42_76
*1624 FILLER_0_42_85
*1625 FILLER_0_42_89
*1626 FILLER_0_43_106
*1627 FILLER_0_43_113
*1628 FILLER_0_43_125
*1629 FILLER_0_43_137
*1630 FILLER_0_43_14
*1631 FILLER_0_43_149
*1632 FILLER_0_43_161
*1633 FILLER_0_43_167
*1634 FILLER_0_43_169
*1635 FILLER_0_43_181
*1636 FILLER_0_43_193
*1637 FILLER_0_43_20
*1638 FILLER_0_43_205
*1639 FILLER_0_43_217
*1640 FILLER_0_43_223
*1641 FILLER_0_43_225
*1642 FILLER_0_43_229
*1643 FILLER_0_43_24
*1644 FILLER_0_43_28
*1645 FILLER_0_43_3
*1646 FILLER_0_43_32
*1647 FILLER_0_43_36
*1648 FILLER_0_43_48
*1649 FILLER_0_43_57
*1650 FILLER_0_43_69
*1651 FILLER_0_43_77
*1652 FILLER_0_43_83
*1653 FILLER_0_43_87
*1654 FILLER_0_43_95
*1655 FILLER_0_44_109
*1656 FILLER_0_44_121
*1657 FILLER_0_44_133
*1658 FILLER_0_44_139
*1659 FILLER_0_44_141
*1660 FILLER_0_44_15
*1661 FILLER_0_44_153
*1662 FILLER_0_44_165
*1663 FILLER_0_44_177
*1664 FILLER_0_44_189
*1665 FILLER_0_44_195
*1666 FILLER_0_44_197
*1667 FILLER_0_44_209
*1668 FILLER_0_44_212
*1669 FILLER_0_44_224
*1670 FILLER_0_44_232
*1671 FILLER_0_44_27
*1672 FILLER_0_44_29
*1673 FILLER_0_44_3
*1674 FILLER_0_44_41
*1675 FILLER_0_44_53
*1676 FILLER_0_44_65
*1677 FILLER_0_44_77
*1678 FILLER_0_44_83
*1679 FILLER_0_44_85
*1680 FILLER_0_44_97
*1681 FILLER_0_45_102
*1682 FILLER_0_45_106
*1683 FILLER_0_45_110
*1684 FILLER_0_45_113
*1685 FILLER_0_45_125
*1686 FILLER_0_45_137
*1687 FILLER_0_45_149
*1688 FILLER_0_45_15
*1689 FILLER_0_45_159
*1690 FILLER_0_45_167
*1691 FILLER_0_45_169
*1692 FILLER_0_45_181
*1693 FILLER_0_45_193
*1694 FILLER_0_45_205
*1695 FILLER_0_45_208
*1696 FILLER_0_45_212
*1697 FILLER_0_45_219
*1698 FILLER_0_45_223
*1699 FILLER_0_45_225
*1700 FILLER_0_45_27
*1701 FILLER_0_45_3
*1702 FILLER_0_45_39
*1703 FILLER_0_45_51
*1704 FILLER_0_45_55
*1705 FILLER_0_45_57
*1706 FILLER_0_45_69
*1707 FILLER_0_45_81
*1708 FILLER_0_45_93
*1709 FILLER_0_46_105
*1710 FILLER_0_46_113
*1711 FILLER_0_46_135
*1712 FILLER_0_46_139
*1713 FILLER_0_46_141
*1714 FILLER_0_46_15
*1715 FILLER_0_46_153
*1716 FILLER_0_46_157
*1717 FILLER_0_46_166
*1718 FILLER_0_46_169
*1719 FILLER_0_46_181
*1720 FILLER_0_46_193
*1721 FILLER_0_46_197
*1722 FILLER_0_46_225
*1723 FILLER_0_46_229
*1724 FILLER_0_46_27
*1725 FILLER_0_46_29
*1726 FILLER_0_46_3
*1727 FILLER_0_46_41
*1728 FILLER_0_46_53
*1729 FILLER_0_46_57
*1730 FILLER_0_46_82
*1731 FILLER_0_46_85
*1732 FILLER_0_46_89
*1733 FILLER_0_46_97
*1734 FILLER_0_4_10
*1735 FILLER_0_4_104
*1736 FILLER_0_4_116
*1737 FILLER_0_4_128
*1738 FILLER_0_4_134
*1739 FILLER_0_4_137
*1740 FILLER_0_4_14
*1741 FILLER_0_4_145
*1742 FILLER_0_4_149
*1743 FILLER_0_4_161
*1744 FILLER_0_4_173
*1745 FILLER_0_4_185
*1746 FILLER_0_4_193
*1747 FILLER_0_4_197
*1748 FILLER_0_4_208
*1749 FILLER_0_4_212
*1750 FILLER_0_4_22
*1751 FILLER_0_4_224
*1752 FILLER_0_4_232
*1753 FILLER_0_4_26
*1754 FILLER_0_4_29
*1755 FILLER_0_4_33
*1756 FILLER_0_4_36
*1757 FILLER_0_4_48
*1758 FILLER_0_4_60
*1759 FILLER_0_4_68
*1760 FILLER_0_4_77
*1761 FILLER_0_4_81
*1762 FILLER_0_4_85
*1763 FILLER_0_4_89
*1764 FILLER_0_4_92
*1765 FILLER_0_5_101
*1766 FILLER_0_5_105
*1767 FILLER_0_5_109
*1768 FILLER_0_5_113
*1769 FILLER_0_5_12
*1770 FILLER_0_5_125
*1771 FILLER_0_5_137
*1772 FILLER_0_5_141
*1773 FILLER_0_5_145
*1774 FILLER_0_5_157
*1775 FILLER_0_5_16
*1776 FILLER_0_5_165
*1777 FILLER_0_5_169
*1778 FILLER_0_5_181
*1779 FILLER_0_5_194
*1780 FILLER_0_5_20
*1781 FILLER_0_5_206
*1782 FILLER_0_5_218
*1783 FILLER_0_5_225
*1784 FILLER_0_5_24
*1785 FILLER_0_5_36
*1786 FILLER_0_5_48
*1787 FILLER_0_5_57
*1788 FILLER_0_5_69
*1789 FILLER_0_5_81
*1790 FILLER_0_5_89
*1791 FILLER_0_6_105
*1792 FILLER_0_6_113
*1793 FILLER_0_6_120
*1794 FILLER_0_6_124
*1795 FILLER_0_6_128
*1796 FILLER_0_6_14
*1797 FILLER_0_6_141
*1798 FILLER_0_6_172
*1799 FILLER_0_6_176
*1800 FILLER_0_6_18
*1801 FILLER_0_6_180
*1802 FILLER_0_6_192
*1803 FILLER_0_6_197
*1804 FILLER_0_6_209
*1805 FILLER_0_6_22
*1806 FILLER_0_6_221
*1807 FILLER_0_6_29
*1808 FILLER_0_6_3
*1809 FILLER_0_6_41
*1810 FILLER_0_6_45
*1811 FILLER_0_6_54
*1812 FILLER_0_6_58
*1813 FILLER_0_6_62
*1814 FILLER_0_6_66
*1815 FILLER_0_6_78
*1816 FILLER_0_6_85
*1817 FILLER_0_6_89
*1818 FILLER_0_6_93
*1819 FILLER_0_7_100
*1820 FILLER_0_7_104
*1821 FILLER_0_7_113
*1822 FILLER_0_7_125
*1823 FILLER_0_7_151
*1824 FILLER_0_7_155
*1825 FILLER_0_7_163
*1826 FILLER_0_7_169
*1827 FILLER_0_7_173
*1828 FILLER_0_7_185
*1829 FILLER_0_7_193
*1830 FILLER_0_7_197
*1831 FILLER_0_7_209
*1832 FILLER_0_7_221
*1833 FILLER_0_7_225
*1834 FILLER_0_7_28
*1835 FILLER_0_7_3
*1836 FILLER_0_7_32
*1837 FILLER_0_7_44
*1838 FILLER_0_7_57
*1839 FILLER_0_7_69
*1840 FILLER_0_7_96
*1841 FILLER_0_8_10
*1842 FILLER_0_8_109
*1843 FILLER_0_8_121
*1844 FILLER_0_8_133
*1845 FILLER_0_8_139
*1846 FILLER_0_8_14
*1847 FILLER_0_8_141
*1848 FILLER_0_8_153
*1849 FILLER_0_8_165
*1850 FILLER_0_8_18
*1851 FILLER_0_8_194
*1852 FILLER_0_8_208
*1853 FILLER_0_8_220
*1854 FILLER_0_8_26
*1855 FILLER_0_8_29
*1856 FILLER_0_8_3
*1857 FILLER_0_8_37
*1858 FILLER_0_8_48
*1859 FILLER_0_8_52
*1860 FILLER_0_8_64
*1861 FILLER_0_8_76
*1862 FILLER_0_8_85
*1863 FILLER_0_8_97
*1864 FILLER_0_9_105
*1865 FILLER_0_9_111
*1866 FILLER_0_9_113
*1867 FILLER_0_9_125
*1868 FILLER_0_9_137
*1869 FILLER_0_9_147
*1870 FILLER_0_9_15
*1871 FILLER_0_9_152
*1872 FILLER_0_9_156
*1873 FILLER_0_9_164
*1874 FILLER_0_9_169
*1875 FILLER_0_9_202
*1876 FILLER_0_9_214
*1877 FILLER_0_9_222
*1878 FILLER_0_9_225
*1879 FILLER_0_9_27
*1880 FILLER_0_9_3
*1881 FILLER_0_9_39
*1882 FILLER_0_9_42
*1883 FILLER_0_9_54
*1884 FILLER_0_9_57
*1885 FILLER_0_9_69
*1886 FILLER_0_9_81
*1887 FILLER_0_9_93
*1888 PHY_EDGE_ROW_0_Left_47
*1889 PHY_EDGE_ROW_0_Right_0
*1890 PHY_EDGE_ROW_10_Left_57
*1891 PHY_EDGE_ROW_10_Right_10
*1892 PHY_EDGE_ROW_11_Left_58
*1893 PHY_EDGE_ROW_11_Right_11
*1894 PHY_EDGE_ROW_12_Left_59
*1895 PHY_EDGE_ROW_12_Right_12
*1896 PHY_EDGE_ROW_13_Left_60
*1897 PHY_EDGE_ROW_13_Right_13
*1898 PHY_EDGE_ROW_14_Left_61
*1899 PHY_EDGE_ROW_14_Right_14
*1900 PHY_EDGE_ROW_15_Left_62
*1901 PHY_EDGE_ROW_15_Right_15
*1902 PHY_EDGE_ROW_16_Left_63
*1903 PHY_EDGE_ROW_16_Right_16
*1904 PHY_EDGE_ROW_17_Left_64
*1905 PHY_EDGE_ROW_17_Right_17
*1906 PHY_EDGE_ROW_18_Left_65
*1907 PHY_EDGE_ROW_18_Right_18
*1908 PHY_EDGE_ROW_19_Left_66
*1909 PHY_EDGE_ROW_19_Right_19
*1910 PHY_EDGE_ROW_1_Left_48
*1911 PHY_EDGE_ROW_1_Right_1
*1912 PHY_EDGE_ROW_20_Left_67
*1913 PHY_EDGE_ROW_20_Right_20
*1914 PHY_EDGE_ROW_21_Left_68
*1915 PHY_EDGE_ROW_21_Right_21
*1916 PHY_EDGE_ROW_22_Left_69
*1917 PHY_EDGE_ROW_22_Right_22
*1918 PHY_EDGE_ROW_23_Left_70
*1919 PHY_EDGE_ROW_23_Right_23
*1920 PHY_EDGE_ROW_24_Left_71
*1921 PHY_EDGE_ROW_24_Right_24
*1922 PHY_EDGE_ROW_25_Left_72
*1923 PHY_EDGE_ROW_25_Right_25
*1924 PHY_EDGE_ROW_26_Left_73
*1925 PHY_EDGE_ROW_26_Right_26
*1926 PHY_EDGE_ROW_27_Left_74
*1927 PHY_EDGE_ROW_27_Right_27
*1928 PHY_EDGE_ROW_28_Left_75
*1929 PHY_EDGE_ROW_28_Right_28
*1930 PHY_EDGE_ROW_29_Left_76
*1931 PHY_EDGE_ROW_29_Right_29
*1932 PHY_EDGE_ROW_2_Left_49
*1933 PHY_EDGE_ROW_2_Right_2
*1934 PHY_EDGE_ROW_30_Left_77
*1935 PHY_EDGE_ROW_30_Right_30
*1936 PHY_EDGE_ROW_31_Left_78
*1937 PHY_EDGE_ROW_31_Right_31
*1938 PHY_EDGE_ROW_32_Left_79
*1939 PHY_EDGE_ROW_32_Right_32
*1940 PHY_EDGE_ROW_33_Left_80
*1941 PHY_EDGE_ROW_33_Right_33
*1942 PHY_EDGE_ROW_34_Left_81
*1943 PHY_EDGE_ROW_34_Right_34
*1944 PHY_EDGE_ROW_35_Left_82
*1945 PHY_EDGE_ROW_35_Right_35
*1946 PHY_EDGE_ROW_36_Left_83
*1947 PHY_EDGE_ROW_36_Right_36
*1948 PHY_EDGE_ROW_37_Left_84
*1949 PHY_EDGE_ROW_37_Right_37
*1950 PHY_EDGE_ROW_38_Left_85
*1951 PHY_EDGE_ROW_38_Right_38
*1952 PHY_EDGE_ROW_39_Left_86
*1953 PHY_EDGE_ROW_39_Right_39
*1954 PHY_EDGE_ROW_3_Left_50
*1955 PHY_EDGE_ROW_3_Right_3
*1956 PHY_EDGE_ROW_40_Left_87
*1957 PHY_EDGE_ROW_40_Right_40
*1958 PHY_EDGE_ROW_41_Left_88
*1959 PHY_EDGE_ROW_41_Right_41
*1960 PHY_EDGE_ROW_42_Left_89
*1961 PHY_EDGE_ROW_42_Right_42
*1962 PHY_EDGE_ROW_43_Left_90
*1963 PHY_EDGE_ROW_43_Right_43
*1964 PHY_EDGE_ROW_44_Left_91
*1965 PHY_EDGE_ROW_44_Right_44
*1966 PHY_EDGE_ROW_45_Left_92
*1967 PHY_EDGE_ROW_45_Right_45
*1968 PHY_EDGE_ROW_46_Left_93
*1969 PHY_EDGE_ROW_46_Right_46
*1970 PHY_EDGE_ROW_4_Left_51
*1971 PHY_EDGE_ROW_4_Right_4
*1972 PHY_EDGE_ROW_5_Left_52
*1973 PHY_EDGE_ROW_5_Right_5
*1974 PHY_EDGE_ROW_6_Left_53
*1975 PHY_EDGE_ROW_6_Right_6
*1976 PHY_EDGE_ROW_7_Left_54
*1977 PHY_EDGE_ROW_7_Right_7
*1978 PHY_EDGE_ROW_8_Left_55
*1979 PHY_EDGE_ROW_8_Right_8
*1980 PHY_EDGE_ROW_9_Left_56
*1981 PHY_EDGE_ROW_9_Right_9
*1982 TAP_TAPCELL_ROW_0_100
*1983 TAP_TAPCELL_ROW_0_101
*1984 TAP_TAPCELL_ROW_0_94
*1985 TAP_TAPCELL_ROW_0_95
*1986 TAP_TAPCELL_ROW_0_96
*1987 TAP_TAPCELL_ROW_0_97
*1988 TAP_TAPCELL_ROW_0_98
*1989 TAP_TAPCELL_ROW_0_99
*1990 TAP_TAPCELL_ROW_10_138
*1991 TAP_TAPCELL_ROW_10_139
*1992 TAP_TAPCELL_ROW_10_140
*1993 TAP_TAPCELL_ROW_10_141
*1994 TAP_TAPCELL_ROW_11_142
*1995 TAP_TAPCELL_ROW_11_143
*1996 TAP_TAPCELL_ROW_11_144
*1997 TAP_TAPCELL_ROW_11_145
*1998 TAP_TAPCELL_ROW_12_146
*1999 TAP_TAPCELL_ROW_12_147
*2000 TAP_TAPCELL_ROW_12_148
*2001 TAP_TAPCELL_ROW_12_149
*2002 TAP_TAPCELL_ROW_13_150
*2003 TAP_TAPCELL_ROW_13_151
*2004 TAP_TAPCELL_ROW_13_152
*2005 TAP_TAPCELL_ROW_13_153
*2006 TAP_TAPCELL_ROW_14_154
*2007 TAP_TAPCELL_ROW_14_155
*2008 TAP_TAPCELL_ROW_14_156
*2009 TAP_TAPCELL_ROW_14_157
*2010 TAP_TAPCELL_ROW_15_158
*2011 TAP_TAPCELL_ROW_15_159
*2012 TAP_TAPCELL_ROW_15_160
*2013 TAP_TAPCELL_ROW_15_161
*2014 TAP_TAPCELL_ROW_16_162
*2015 TAP_TAPCELL_ROW_16_163
*2016 TAP_TAPCELL_ROW_16_164
*2017 TAP_TAPCELL_ROW_16_165
*2018 TAP_TAPCELL_ROW_17_166
*2019 TAP_TAPCELL_ROW_17_167
*2020 TAP_TAPCELL_ROW_17_168
*2021 TAP_TAPCELL_ROW_17_169
*2022 TAP_TAPCELL_ROW_18_170
*2023 TAP_TAPCELL_ROW_18_171
*2024 TAP_TAPCELL_ROW_18_172
*2025 TAP_TAPCELL_ROW_18_173
*2026 TAP_TAPCELL_ROW_19_174
*2027 TAP_TAPCELL_ROW_19_175
*2028 TAP_TAPCELL_ROW_19_176
*2029 TAP_TAPCELL_ROW_19_177
*2030 TAP_TAPCELL_ROW_1_102
*2031 TAP_TAPCELL_ROW_1_103
*2032 TAP_TAPCELL_ROW_1_104
*2033 TAP_TAPCELL_ROW_1_105
*2034 TAP_TAPCELL_ROW_20_178
*2035 TAP_TAPCELL_ROW_20_179
*2036 TAP_TAPCELL_ROW_20_180
*2037 TAP_TAPCELL_ROW_20_181
*2038 TAP_TAPCELL_ROW_21_182
*2039 TAP_TAPCELL_ROW_21_183
*2040 TAP_TAPCELL_ROW_21_184
*2041 TAP_TAPCELL_ROW_21_185
*2042 TAP_TAPCELL_ROW_22_186
*2043 TAP_TAPCELL_ROW_22_187
*2044 TAP_TAPCELL_ROW_22_188
*2045 TAP_TAPCELL_ROW_22_189
*2046 TAP_TAPCELL_ROW_23_190
*2047 TAP_TAPCELL_ROW_23_191
*2048 TAP_TAPCELL_ROW_23_192
*2049 TAP_TAPCELL_ROW_23_193
*2050 TAP_TAPCELL_ROW_24_194
*2051 TAP_TAPCELL_ROW_24_195
*2052 TAP_TAPCELL_ROW_24_196
*2053 TAP_TAPCELL_ROW_24_197
*2054 TAP_TAPCELL_ROW_25_198
*2055 TAP_TAPCELL_ROW_25_199
*2056 TAP_TAPCELL_ROW_25_200
*2057 TAP_TAPCELL_ROW_25_201
*2058 TAP_TAPCELL_ROW_26_202
*2059 TAP_TAPCELL_ROW_26_203
*2060 TAP_TAPCELL_ROW_26_204
*2061 TAP_TAPCELL_ROW_26_205
*2062 TAP_TAPCELL_ROW_27_206
*2063 TAP_TAPCELL_ROW_27_207
*2064 TAP_TAPCELL_ROW_27_208
*2065 TAP_TAPCELL_ROW_27_209
*2066 TAP_TAPCELL_ROW_28_210
*2067 TAP_TAPCELL_ROW_28_211
*2068 TAP_TAPCELL_ROW_28_212
*2069 TAP_TAPCELL_ROW_28_213
*2070 TAP_TAPCELL_ROW_29_214
*2071 TAP_TAPCELL_ROW_29_215
*2072 TAP_TAPCELL_ROW_29_216
*2073 TAP_TAPCELL_ROW_29_217
*2074 TAP_TAPCELL_ROW_2_106
*2075 TAP_TAPCELL_ROW_2_107
*2076 TAP_TAPCELL_ROW_2_108
*2077 TAP_TAPCELL_ROW_2_109
*2078 TAP_TAPCELL_ROW_30_218
*2079 TAP_TAPCELL_ROW_30_219
*2080 TAP_TAPCELL_ROW_30_220
*2081 TAP_TAPCELL_ROW_30_221
*2082 TAP_TAPCELL_ROW_31_222
*2083 TAP_TAPCELL_ROW_31_223
*2084 TAP_TAPCELL_ROW_31_224
*2085 TAP_TAPCELL_ROW_31_225
*2086 TAP_TAPCELL_ROW_32_226
*2087 TAP_TAPCELL_ROW_32_227
*2088 TAP_TAPCELL_ROW_32_228
*2089 TAP_TAPCELL_ROW_32_229
*2090 TAP_TAPCELL_ROW_33_230
*2091 TAP_TAPCELL_ROW_33_231
*2092 TAP_TAPCELL_ROW_33_232
*2093 TAP_TAPCELL_ROW_33_233
*2094 TAP_TAPCELL_ROW_34_234
*2095 TAP_TAPCELL_ROW_34_235
*2096 TAP_TAPCELL_ROW_34_236
*2097 TAP_TAPCELL_ROW_34_237
*2098 TAP_TAPCELL_ROW_35_238
*2099 TAP_TAPCELL_ROW_35_239
*2100 TAP_TAPCELL_ROW_35_240
*2101 TAP_TAPCELL_ROW_35_241
*2102 TAP_TAPCELL_ROW_36_242
*2103 TAP_TAPCELL_ROW_36_243
*2104 TAP_TAPCELL_ROW_36_244
*2105 TAP_TAPCELL_ROW_36_245
*2106 TAP_TAPCELL_ROW_37_246
*2107 TAP_TAPCELL_ROW_37_247
*2108 TAP_TAPCELL_ROW_37_248
*2109 TAP_TAPCELL_ROW_37_249
*2110 TAP_TAPCELL_ROW_38_250
*2111 TAP_TAPCELL_ROW_38_251
*2112 TAP_TAPCELL_ROW_38_252
*2113 TAP_TAPCELL_ROW_38_253
*2114 TAP_TAPCELL_ROW_39_254
*2115 TAP_TAPCELL_ROW_39_255
*2116 TAP_TAPCELL_ROW_39_256
*2117 TAP_TAPCELL_ROW_39_257
*2118 TAP_TAPCELL_ROW_3_110
*2119 TAP_TAPCELL_ROW_3_111
*2120 TAP_TAPCELL_ROW_3_112
*2121 TAP_TAPCELL_ROW_3_113
*2122 TAP_TAPCELL_ROW_40_258
*2123 TAP_TAPCELL_ROW_40_259
*2124 TAP_TAPCELL_ROW_40_260
*2125 TAP_TAPCELL_ROW_40_261
*2126 TAP_TAPCELL_ROW_41_262
*2127 TAP_TAPCELL_ROW_41_263
*2128 TAP_TAPCELL_ROW_41_264
*2129 TAP_TAPCELL_ROW_41_265
*2130 TAP_TAPCELL_ROW_42_266
*2131 TAP_TAPCELL_ROW_42_267
*2132 TAP_TAPCELL_ROW_42_268
*2133 TAP_TAPCELL_ROW_42_269
*2134 TAP_TAPCELL_ROW_43_270
*2135 TAP_TAPCELL_ROW_43_271
*2136 TAP_TAPCELL_ROW_43_272
*2137 TAP_TAPCELL_ROW_43_273
*2138 TAP_TAPCELL_ROW_44_274
*2139 TAP_TAPCELL_ROW_44_275
*2140 TAP_TAPCELL_ROW_44_276
*2141 TAP_TAPCELL_ROW_44_277
*2142 TAP_TAPCELL_ROW_45_278
*2143 TAP_TAPCELL_ROW_45_279
*2144 TAP_TAPCELL_ROW_45_280
*2145 TAP_TAPCELL_ROW_45_281
*2146 TAP_TAPCELL_ROW_46_282
*2147 TAP_TAPCELL_ROW_46_283
*2148 TAP_TAPCELL_ROW_46_284
*2149 TAP_TAPCELL_ROW_46_285
*2150 TAP_TAPCELL_ROW_46_286
*2151 TAP_TAPCELL_ROW_46_287
*2152 TAP_TAPCELL_ROW_46_288
*2153 TAP_TAPCELL_ROW_46_289
*2154 TAP_TAPCELL_ROW_4_114
*2155 TAP_TAPCELL_ROW_4_115
*2156 TAP_TAPCELL_ROW_4_116
*2157 TAP_TAPCELL_ROW_4_117
*2158 TAP_TAPCELL_ROW_5_118
*2159 TAP_TAPCELL_ROW_5_119
*2160 TAP_TAPCELL_ROW_5_120
*2161 TAP_TAPCELL_ROW_5_121
*2162 TAP_TAPCELL_ROW_6_122
*2163 TAP_TAPCELL_ROW_6_123
*2164 TAP_TAPCELL_ROW_6_124
*2165 TAP_TAPCELL_ROW_6_125
*2166 TAP_TAPCELL_ROW_7_126
*2167 TAP_TAPCELL_ROW_7_127
*2168 TAP_TAPCELL_ROW_7_128
*2169 TAP_TAPCELL_ROW_7_129
*2170 TAP_TAPCELL_ROW_8_130
*2171 TAP_TAPCELL_ROW_8_131
*2172 TAP_TAPCELL_ROW_8_132
*2173 TAP_TAPCELL_ROW_8_133
*2174 TAP_TAPCELL_ROW_9_134
*2175 TAP_TAPCELL_ROW_9_135
*2176 TAP_TAPCELL_ROW_9_136
*2177 TAP_TAPCELL_ROW_9_137
*2178 _157_
*2179 _158_
*2180 _159_
*2181 _160_
*2182 _161_
*2183 _162_
*2184 _163_
*2185 _164_
*2186 _165_
*2187 _166_
*2188 _167_
*2189 _168_
*2190 _169_
*2191 _170_
*2192 _171_
*2193 _172_
*2194 _173_
*2195 _174_
*2196 _175_
*2197 _176_
*2198 _177_
*2199 _178_
*2200 _179_
*2201 _180_
*2202 _181_
*2203 _182_
*2204 _183_
*2205 _184_
*2206 _185_
*2207 _186_
*2208 _187_
*2209 _188_
*2210 _189_
*2211 _190_
*2212 _191_
*2213 _192_
*2214 _193_
*2215 _194_
*2216 _195_
*2217 _196_
*2218 _197_
*2219 _198_
*2220 _199_
*2221 _200_
*2222 _201_
*2223 _202_
*2224 _203_
*2225 _204_
*2226 _205_
*2227 _206_
*2228 _207_
*2229 _208_
*2230 _209_
*2231 _210_
*2232 _211_
*2233 _212_
*2234 _213_
*2235 _214_
*2236 _215_
*2237 _216_
*2238 _217_
*2239 _218_
*2240 _219_
*2241 _220_
*2242 _221_
*2243 _222_
*2244 _223_
*2245 _224_
*2246 _225_
*2247 _226_
*2248 _227_
*2249 _228_
*2250 _229_
*2251 _230_
*2252 _231_
*2253 _232_
*2254 _233_
*2255 _234_
*2256 _235_
*2257 _236_
*2258 _237_
*2259 _238_
*2260 _239_
*2261 _240_
*2262 _241_
*2263 _242_
*2264 _243_
*2265 _244_
*2266 _245_
*2267 _246_
*2268 _247_
*2269 _248_
*2270 _249_
*2271 _250_
*2272 _251_
*2273 _252_
*2274 _253_
*2275 _254_
*2276 _255_
*2277 _256_
*2278 _257_
*2279 _258_
*2280 _259_
*2281 _260_
*2282 _261_
*2283 _262_
*2284 _263_
*2285 _264_
*2286 _265_
*2287 _266_
*2288 _267_
*2289 _268_
*2290 _269_
*2291 _270_
*2292 _271_
*2293 _272_
*2294 _273_
*2295 _274_
*2296 _275_
*2297 _276_
*2298 _277_
*2299 _278_
*2300 _279_
*2301 _280_
*2302 _281_
*2303 _282_
*2304 _283_
*2305 _284_
*2306 _285_
*2307 _286_
*2308 _287_
*2309 _288_
*2310 _289_
*2311 _290_
*2312 _291_
*2313 _292_
*2314 _293_
*2315 _294_
*2316 _295_
*2317 _296_
*2318 _297_
*2319 _298_
*2320 _299_
*2321 _300_
*2322 _301_
*2323 _302_
*2324 _303_
*2325 _304_
*2326 _305_
*2327 _306_
*2328 _307_
*2329 _308_
*2330 _309_
*2331 _310_
*2332 _311_
*2333 _312_
*2334 _313_
*2335 _314_
*2336 _315_
*2337 _316_
*2338 _317_
*2339 _318_
*2340 _319_
*2341 _320_
*2342 _321_
*2343 _322_
*2344 _323_
*2345 _324_
*2346 _325_
*2347 _326_
*2348 _327_
*2349 _328_
*2350 _329_
*2351 _330_
*2352 _331_
*2353 _332_
*2354 _333_
*2355 _334_
*2356 _335_
*2357 _336_
*2358 _337_
*2359 _338_
*2360 _339_
*2361 _340_
*2362 _341_
*2363 _342_
*2364 _343_
*2365 _344_
*2366 _345_
*2367 _346_
*2368 _347_
*2369 _348_
*2370 _349_
*2371 _350_
*2372 _351_
*2373 _352_
*2374 _353_
*2375 _354_
*2376 _355_
*2377 _356_
*2378 _361_
*2379 clkbuf_0_clk
*2380 clkbuf_2_0__f_clk
*2381 clkbuf_2_1__f_clk
*2382 clkbuf_2_2__f_clk
*2383 clkbuf_2_3__f_clk
*2384 clkload0
*2385 clkload1
*2386 clkload2
*2387 lab3_10
*2388 lab3_11
*2389 lab3_8
*2390 lab3_9
*2391 output1
*2392 output2
*2393 output3
*2394 output4
*2395 output5
*2396 output6
*2397 output7

*PORTS
an[0] O
an[1] O
an[2] O
an[3] O
clk I
rst_button I
seg[0] O
seg[1] O
seg[2] O
seg[3] O
seg[4] O
seg[5] O
seg[6] O

*D_NET *3 0.00151727
*CONN
*P an[0] O
*I *2389:LO O *D sky130_fd_sc_hd__conb_1
*CAP
1 an[0] 0.000758637
2 *2389:LO 0.000758637
*RES
1 *2389:LO an[0] 10.5796 
*END

*D_NET *4 0.000618303
*CONN
*P an[1] O
*I *2390:HI O *D sky130_fd_sc_hd__conb_1
*CAP
1 an[1] 0.000309152
2 *2390:HI 0.000309152
*RES
1 *2390:HI an[1] 5.35677 
*END

*D_NET *5 0.00055505
*CONN
*P an[2] O
*I *2387:HI O *D sky130_fd_sc_hd__conb_1
*CAP
1 an[2] 0.000277525
2 *2387:HI 0.000277525
*RES
1 *2387:HI an[2] 6.67217 
*END

*D_NET *6 0.000636982
*CONN
*P an[3] O
*I *2388:HI O *D sky130_fd_sc_hd__conb_1
*CAP
1 an[3] 0.00030133
2 *2388:HI 0.00030133
3 an[3] *104:16 3.4323e-05
*RES
1 *2388:HI an[3] 5.35677 
*END

*D_NET *7 0.015125
*CONN
*P clk I
*I *2379:A I *D sky130_fd_sc_hd__clkbuf_16
*CAP
1 clk 0.0052191
2 *2379:A 0.0052191
3 *2379:A *21:24 0.000383523
4 *2379:A *30:18 0
5 *2379:A *71:22 0.00154085
6 *2379:A *97:24 0.00116894
7 *2379:A *117:24 0.000121048
8 *2379:A *123:20 0.000211992
9 *2379:A *132:28 0
10 *2379:A *138:28 0.00048901
11 *2379:A *159:18 0.000128231
12 *2379:A *166:30 0
13 *2379:A *167:28 0.000140783
14 *2379:A *212:12 0.000309776
15 *2379:A *212:14 6.84082e-05
16 *2379:A *212:20 1.79483e-05
17 *2379:A *214:38 0
18 *2379:A *217:26 0.000106321
*RES
1 clk *2379:A 20.7154 
*END

*D_NET *8 0.00450092
*CONN
*P rst_button I
*I *2300:A I *D sky130_fd_sc_hd__clkbuf_8
*CAP
1 rst_button 0.00139857
2 *2300:A 0.00139857
3 *2300:A *31:24 0
4 *2300:A *67:26 0.00162285
5 *2300:A *181:10 4.04634e-05
6 *2300:A *185:84 4.04634e-05
*RES
1 rst_button *2300:A 8.4103 
*END

*D_NET *9 0.000558882
*CONN
*P seg[0] O
*I *2391:X O *D sky130_fd_sc_hd__buf_1
*CAP
1 seg[0] 0.000279441
2 *2391:X 0.000279441
*RES
1 *2391:X seg[0] 6.67217 
*END

*D_NET *10 0.00123309
*CONN
*P seg[1] O
*I *2392:X O *D sky130_fd_sc_hd__buf_1
*CAP
1 seg[1] 0.000466176
2 *2392:X 0.000466176
3 seg[1] *2226:B 0.000143352
4 seg[1] *2226:C 3.50562e-05
5 seg[1] *126:8 0.000122331
*RES
1 *2392:X seg[1] 8.02503 
*END

*D_NET *11 0.000553033
*CONN
*P seg[2] O
*I *2393:X O *D sky130_fd_sc_hd__buf_1
*CAP
1 seg[2] 0.000267542
2 *2393:X 0.000267542
3 seg[2] *221:20 1.79483e-05
*RES
1 *2393:X seg[2] 6.67217 
*END

*D_NET *12 0.000585958
*CONN
*P seg[3] O
*I *2394:X O *D sky130_fd_sc_hd__buf_1
*CAP
1 seg[3] 0.000283133
2 *2394:X 0.000283133
3 seg[3] *220:8 1.96913e-05
*RES
1 *2394:X seg[3] 4.84677 
*END

*D_NET *13 0.000565615
*CONN
*P seg[4] O
*I *2395:X O *D sky130_fd_sc_hd__buf_1
*CAP
1 seg[4] 0.000273833
2 *2395:X 0.000273833
3 seg[4] *221:20 1.79483e-05
*RES
1 *2395:X seg[4] 6.67217 
*END

*D_NET *14 0.000586369
*CONN
*P seg[5] O
*I *2396:X O *D sky130_fd_sc_hd__buf_1
*CAP
1 seg[5] 0.000293185
2 *2396:X 0.000293185
*RES
1 *2396:X seg[5] 4.84677 
*END

*D_NET *15 0.00153955
*CONN
*P seg[6] O
*I *2397:X O *D sky130_fd_sc_hd__buf_1
*CAP
1 seg[6] 0.00068245
2 *2397:X 0.00068245
3 seg[6] *620:DIODE 0.000123955
4 seg[6] *2397:A 5.06989e-05
*RES
1 *2397:X seg[6] 12.0681 
*END

*D_NET *16 0.00926146
*CONN
*I *2373:D I *D sky130_fd_sc_hd__dfrtp_4
*I *2285:Y O *D sky130_fd_sc_hd__a21oi_1
*CAP
1 *2373:D 0.000186646
2 *2285:Y 0.00134802
3 *16:10 0.00153467
4 *2373:D *2342:RESET_B 7.23533e-05
5 *2373:D *2373:CLK 4.66108e-05
6 *2373:D *180:20 7.06865e-05
7 *2373:D *198:14 0.000380293
8 *2373:D *219:26 0.000446987
9 *16:10 *2245:A 0.000178314
10 *16:10 *36:30 0.000429505
11 *16:10 *103:14 0.00259918
12 *16:10 *156:65 0.000175931
13 *16:10 *156:71 0.000199059
14 *16:10 *171:116 0.00013593
15 *16:10 *175:16 6.54361e-06
16 *16:10 *183:12 3.11802e-05
17 *16:10 *183:150 0.000650135
18 *16:10 *192:92 0.000348518
19 *16:10 *196:16 0
20 *16:10 *199:142 0.000286967
21 *16:10 *203:66 0.000133931
*RES
1 *2285:Y *16:10 46.505 
2 *16:10 *2373:D 11.51 
*END

*D_NET *17 0.018748
*CONN
*I *607:DIODE I *D sky130_fd_sc_hd__diode_2
*I *2374:D I *D sky130_fd_sc_hd__dfrtp_4
*I *2286:X O *D sky130_fd_sc_hd__xor2_2
*CAP
1 *607:DIODE 9.36289e-05
2 *2374:D 0.000108749
3 *2286:X 0.00180667
4 *17:28 0.000256384
5 *17:24 0.00238994
6 *17:14 0.00414261
7 *607:DIODE *214:14 0.000118081
8 *2374:D *132:28 1.83311e-05
9 *2374:D *143:24 2.49909e-05
10 *2374:D *156:91 0.000175094
11 *2374:D *178:10 7.27704e-06
12 *2374:D *178:34 4.77769e-05
13 *2374:D *178:48 7.71167e-06
14 *2374:D *205:64 0.000257945
15 *17:14 *116:84 0
16 *17:14 *140:14 0.000544589
17 *17:14 *141:36 9.24881e-05
18 *17:14 *147:26 0
19 *17:14 *148:12 0
20 *17:14 *152:44 0.000981573
21 *17:14 *153:61 0.00104041
22 *17:14 *167:38 0.000128611
23 *17:14 *167:44 4.99581e-05
24 *17:14 *187:74 0
25 *17:14 *201:22 0.000598506
26 *17:24 *265:DIODE 0.000119247
27 *17:24 *266:DIODE 4.66108e-05
28 *17:24 *2290:A 0.000192502
29 *17:24 *2341:D 0.0020918
30 *17:24 *2371:D 3.35219e-05
31 *17:24 *18:8 4.90227e-05
32 *17:24 *39:28 0.000589798
33 *17:24 *167:44 4.77719e-05
34 *17:24 *174:16 8.35118e-05
35 *17:24 *174:18 0.000921445
36 *17:24 *174:24 0.00028501
37 *17:24 *179:146 0.000302103
38 *17:24 *189:28 0.000833852
39 *17:28 *2273:A1 7.03219e-05
40 *17:28 *132:28 4.4796e-05
41 *17:28 *205:64 0.000145354
*RES
1 *2286:X *17:14 49.355 
2 *17:14 *17:24 48.555 
3 *17:24 *17:28 3.89 
4 *17:28 *2374:D 7.215 
5 *17:28 *607:DIODE 4.74 
*END

*D_NET *18 0.0119466
*CONN
*I *2375:D I *D sky130_fd_sc_hd__dfrtp_4
*I *609:DIODE I *D sky130_fd_sc_hd__diode_2
*I *2290:X O *D sky130_fd_sc_hd__buf_1
*CAP
1 *2375:D 0.000565996
2 *609:DIODE 0
3 *2290:X 6.15627e-05
4 *18:14 0.000733863
5 *18:10 0.00363271
6 *18:8 0.0035264
7 *2375:D *2348:D 5.83121e-06
8 *2375:D *2375:RESET_B 0.000106504
9 *2375:D *181:10 2.75229e-05
10 *18:10 *362:DIODE 6.4816e-05
11 *18:10 *2184:C 0.000138551
12 *18:10 *2211:A 4.75977e-05
13 *18:10 *2211:D 4.0939e-05
14 *18:10 *2297:C 7.08297e-05
15 *18:10 *2355:D 6.04973e-05
16 *18:10 *74:10 0.00137921
17 *18:10 *115:14 0
18 *18:10 *116:72 0
19 *18:10 *176:82 0
20 *18:10 *176:102 0
21 *18:10 *181:10 0
22 *18:10 *184:38 0
23 *18:10 *185:114 0.000172182
24 *18:10 *188:20 0
25 *18:10 *193:72 0
26 *18:10 *213:58 0.00108711
27 *18:10 *214:38 0.000153365
28 *18:10 *214:53 2.21075e-05
29 *17:24 *18:8 4.90227e-05
*RES
1 *2290:X *18:8 4.395 
2 *18:8 *18:10 68.19 
3 *18:10 *18:14 3.83 
4 *18:14 *609:DIODE 1.6 
5 *18:14 *2375:D 10.855 
*END

*D_NET *19 0.0157983
*CONN
*I *2376:D I *D sky130_fd_sc_hd__dfrtp_4
*I *2291:Y O *D sky130_fd_sc_hd__xnor2_1
*CAP
1 *2376:D 0.00144037
2 *2291:Y 0.00201737
3 *19:10 0.00345774
4 *2376:D *2200:B 0.00128414
5 *2376:D *2376:CLK 7.20899e-05
6 *2376:D *2376:RESET_B 0.0010882
7 *2376:D *130:46 0.000156774
8 *2376:D *178:52 8.35106e-05
9 *2376:D *221:14 8.39896e-05
10 *19:10 *234:DIODE 0.000104767
11 *19:10 *2182:D 0.000153624
12 *19:10 *2291:A 0.000195476
13 *19:10 *56:20 0.000416833
14 *19:10 *149:30 0.000376068
15 *19:10 *182:136 0.00152476
16 *19:10 *191:52 0.000547492
17 *19:10 *193:22 1.7635e-05
18 *19:10 *197:66 0.000201321
19 *19:10 *198:68 0.00150802
20 *19:10 *210:12 0.00106811
*RES
1 *2291:Y *19:10 48.24 
2 *19:10 *2376:D 27.57 
*END

*D_NET *20 0.00573836
*CONN
*I *2341:D I *D sky130_fd_sc_hd__dfrtp_4
*I *2191:X O *D sky130_fd_sc_hd__clkbuf_1
*CAP
1 *2341:D 0.00163012
2 *2191:X 0.00163012
3 *2341:D *2193:A 4.88555e-05
4 *2341:D *134:65 2.99555e-05
5 *2341:D *166:66 0.000200798
6 *2341:D *190:44 0.000106724
7 *17:24 *2341:D 0.0020918
*RES
1 *2191:X *2341:D 30.135 
*END

*D_NET *21 0.0187949
*CONN
*I *2351:D I *D sky130_fd_sc_hd__dfrtp_4
*I *565:DIODE I *D sky130_fd_sc_hd__diode_2
*I *2224:X O *D sky130_fd_sc_hd__xor2_2
*CAP
1 *2351:D 0
2 *565:DIODE 6.78839e-05
3 *2224:X 0.00104423
4 *21:36 0.000499894
5 *21:24 0.00251288
6 *21:22 0.0031251
7 *565:DIODE *2348:RESET_B 0.000106441
8 *565:DIODE *172:188 0.000105508
9 *21:22 *273:DIODE 4.77807e-05
10 *21:22 *2197:B 8.06242e-05
11 *21:22 *2197:C 4.12864e-05
12 *21:22 *2197:D 7.38695e-05
13 *21:22 *2224:B 0.000136665
14 *21:22 *2265:A 1.91597e-05
15 *21:22 *2265:B 0.00010068
16 *21:22 *36:30 0.000197858
17 *21:22 *71:22 2.2016e-05
18 *21:22 *119:44 0.000315043
19 *21:24 *2278:A2 0
20 *21:24 *2346:RESET_B 0.000261889
21 *21:24 *2353:RESET_B 0.000469378
22 *21:24 *55:14 0
23 *21:24 *94:20 0.000731561
24 *21:24 *94:26 0.00192186
25 *21:24 *94:41 0
26 *21:24 *106:51 0.000112132
27 *21:24 *138:28 0.000291891
28 *21:24 *159:18 0.00132131
29 *21:24 *159:24 0.000857585
30 *21:24 *171:86 0.000286145
31 *21:24 *171:92 0.000117445
32 *21:24 *172:206 8.51225e-05
33 *21:24 *172:208 6.22772e-05
34 *21:24 *172:214 0.000497344
35 *21:24 *176:17 0.000160658
36 *21:24 *176:52 0.000430548
37 *21:24 *199:142 0.000226848
38 *21:24 *202:24 0.000744832
39 *21:24 *212:12 0.000479683
40 *21:24 *212:20 0.000260365
41 *21:36 *564:DIODE 3.29947e-05
42 *21:36 *2348:RESET_B 6.98693e-05
43 *21:36 *94:16 0
44 *21:36 *94:20 0
45 *21:36 *95:18 0.000213769
46 *21:36 *172:188 0.000124119
47 *21:36 *184:20 8.3062e-05
48 *21:36 *201:71 7.17852e-05
49 *2379:A *21:24 0.000383523
*RES
1 *2224:X *21:22 24.085 
2 *21:22 *21:24 67.425 
3 *21:24 *21:36 13.695 
4 *21:36 *565:DIODE 3.43 
5 *21:36 *2351:D 1.6 
*END

*D_NET *22 0.00232507
*CONN
*I *2352:D I *D sky130_fd_sc_hd__dfrtp_4
*I *2228:X O *D sky130_fd_sc_hd__clkbuf_1
*CAP
1 *2352:D 0.000520154
2 *2228:X 0.000520154
3 *2352:D *566:DIODE 9.02174e-05
4 *2352:D *2287:B 4.21518e-05
5 *2352:D *2365:RESET_B 1.34594e-05
6 *2352:D *151:121 0.000197826
7 *2352:D *163:14 0.000131168
8 *2352:D *180:156 0.00034158
9 *2352:D *204:30 0.000468354
*RES
1 *2228:X *2352:D 19.575 
*END

*D_NET *23 0.00830684
*CONN
*I *2353:D I *D sky130_fd_sc_hd__dfrtp_4
*I *2229:Y O *D sky130_fd_sc_hd__xnor2_1
*CAP
1 *2353:D 0.00238358
2 *2229:Y 0.00238358
3 *2353:D *474:DIODE 0.00015896
4 *2353:D *2281:A 0
5 *2353:D *2281:B 1.88315e-05
6 *2353:D *2299:A1 0.000196992
7 *2353:D *2346:D 0.00103416
8 *2353:D *2353:CLK 0.000211572
9 *2353:D *2372:D 0.000858767
10 *2353:D *39:28 0
11 *2353:D *41:24 7.06865e-05
12 *2353:D *57:14 8.23457e-05
13 *2353:D *119:8 0.000118081
14 *2353:D *119:24 0.00032369
15 *2353:D *186:100 0.000104935
16 *2353:D *186:113 9.50342e-06
17 *2353:D *208:14 0.000351145
*RES
1 *2229:Y *2353:D 48.475 
*END

*D_NET *24 0.00330955
*CONN
*I *2354:D I *D sky130_fd_sc_hd__dfrtp_2
*I *2233:X O *D sky130_fd_sc_hd__o21ba_1
*CAP
1 *2354:D 0.00097006
2 *2233:X 0.00097006
3 *2354:D *2354:CLK 0.000124007
4 *2354:D *2354:RESET_B 6.52265e-05
5 *2354:D *26:38 0.000230129
6 *2354:D *108:24 6.19834e-05
7 *2354:D *128:16 0
8 *2354:D *186:100 0.00041336
9 *2354:D *200:14 0.000474728
*RES
1 *2233:X *2354:D 25.545 
*END

*D_NET *25 0.000444827
*CONN
*I *2355:D I *D sky130_fd_sc_hd__dfrtp_2
*I *2235:X O *D sky130_fd_sc_hd__o211a_1
*CAP
1 *2355:D 0.000149425
2 *2235:X 0.000149425
3 *2355:D *2211:C 2.63208e-06
4 *2355:D *2211:D 3.21772e-05
5 *2355:D *176:82 3.75882e-06
6 *2355:D *176:102 3.60365e-05
7 *2355:D *188:102 1.08758e-05
8 *18:10 *2355:D 6.04973e-05
*RES
1 *2235:X *2355:D 9.72 
*END

*D_NET *26 0.0227243
*CONN
*I *2356:D I *D sky130_fd_sc_hd__dfrtp_4
*I *573:DIODE I *D sky130_fd_sc_hd__diode_2
*I *2236:Y O *D sky130_fd_sc_hd__xnor2_2
*CAP
1 *2356:D 0.000172674
2 *573:DIODE 6.52939e-05
3 *2236:Y 0.00125554
4 *26:38 0.00208776
5 *26:32 0.00452703
6 *26:12 0.00393278
7 *573:DIODE *185:30 8.23457e-05
8 *2356:D *2356:CLK 8.247e-05
9 *2356:D *2356:RESET_B 0.00015639
10 *2356:D *109:22 0.000198293
11 *2356:D *189:16 0.000260834
12 *26:12 *2236:A 0.000160338
13 *26:12 *2236:B 0.00012398
14 *26:12 *2361:D 9.54399e-05
15 *26:12 *2367:CLK 7.47284e-05
16 *26:12 *100:14 0
17 *26:12 *122:37 2.01934e-05
18 *26:12 *127:26 0.000139918
19 *26:12 *131:18 0
20 *26:12 *134:224 0.000374472
21 *26:12 *147:10 0.000439519
22 *26:12 *147:18 1.97209e-05
23 *26:12 *158:24 0.00112705
24 *26:12 *179:170 3.39944e-05
25 *26:12 *179:194 2.05661e-05
26 *26:12 *181:46 0.00013521
27 *26:12 *187:36 0.00221986
28 *26:12 *192:26 0.00056873
29 *26:12 *193:10 0
30 *26:32 *2198:A 0.000356303
31 *26:32 *106:8 8.49205e-05
32 *26:32 *119:24 7.23533e-05
33 *26:32 *144:93 0.00116403
34 *26:32 *167:28 0.000636032
35 *26:32 *190:16 2.43962e-05
36 *26:32 *197:24 4.79712e-05
37 *26:32 *208:36 7.06865e-05
38 *26:38 *109:22 7.23602e-05
39 *26:38 *186:100 0.00151928
40 *26:38 *189:16 7.06865e-05
41 *2354:D *26:38 0.000230129
*RES
1 *2236:Y *26:12 47.735 
2 *26:12 *26:32 48.455 
3 *26:32 *26:38 25.745 
4 *26:38 *573:DIODE 4.395 
5 *26:38 *2356:D 8.52 
*END

*D_NET *27 0.0083184
*CONN
*I *2357:D I *D sky130_fd_sc_hd__dfrtp_4
*I *2240:X O *D sky130_fd_sc_hd__xor2_1
*CAP
1 *2357:D 0.00148036
2 *2240:X 0.00148036
3 *2357:D *2218:B 0.000564067
4 *2357:D *2357:RESET_B 0.00109758
5 *2357:D *2359:RESET_B 0.000153816
6 *2357:D *75:28 0.000471007
7 *2357:D *122:37 0.000140255
8 *2357:D *143:12 0.000480168
9 *2357:D *143:24 0.000308486
10 *2357:D *149:30 0.00166652
11 *2357:D *172:62 9.54899e-05
12 *2357:D *174:156 0.000118081
13 *2357:D *174:165 6.1357e-05
14 *2357:D *201:67 0.000200859
*RES
1 *2240:X *2357:D 48.45 
*END

*D_NET *28 0.0296907
*CONN
*I *577:DIODE I *D sky130_fd_sc_hd__diode_2
*I *2358:D I *D sky130_fd_sc_hd__dfrtp_4
*I *2243:Y O *D sky130_fd_sc_hd__nor2_2
*CAP
1 *577:DIODE 0
2 *2358:D 0.000328812
3 *2243:Y 0.00815869
4 *28:28 0.0084875
5 *2358:D *112:12 0.000308719
6 *2358:D *185:114 3.96088e-05
7 *2358:D *193:72 2.10433e-05
8 *28:28 *2211:C 1.30872e-05
9 *28:28 *2235:B1 9.0614e-05
10 *28:28 *2366:RESET_B 0.000609733
11 *28:28 *31:24 0.00482513
12 *28:28 *56:16 0.000194751
13 *28:28 *66:32 0.00171851
14 *28:28 *67:26 0.000255241
15 *28:28 *109:22 0.000676796
16 *28:28 *109:28 0.000303941
17 *28:28 *110:10 0.000107433
18 *28:28 *112:12 0.000196376
19 *28:28 *126:12 0.000457043
20 *28:28 *131:44 0.000627124
21 *28:28 *136:50 0.000126563
22 *28:28 *169:22 0
23 *28:28 *169:202 0
24 *28:28 *170:34 0
25 *28:28 *170:96 0.000826345
26 *28:28 *175:219 0.000105271
27 *28:28 *181:10 0.00012786
28 *28:28 *185:30 0.000422812
29 *28:28 *186:117 0.000142647
30 *28:28 *189:16 0.000310822
31 *28:28 *199:74 0.000117708
32 *28:28 *212:104 9.05535e-05
*RES
1 *2243:Y *28:28 41.8308 
2 *28:28 *2358:D 10.325 
3 *28:28 *577:DIODE 1.6 
*END

*D_NET *29 0.00963172
*CONN
*I *2359:D I *D sky130_fd_sc_hd__dfrtp_4
*I *2247:X O *D sky130_fd_sc_hd__buf_1
*CAP
1 *2359:D 0.000207564
2 *2247:X 0.00240707
3 *29:12 0.00261464
4 *2359:D *2234:A 8.23457e-05
5 *2359:D *2269:A 4.66108e-05
6 *2359:D *2269:B 6.69608e-06
7 *2359:D *2359:CLK 8.30403e-05
8 *2359:D *116:50 6.77517e-06
9 *2359:D *131:18 0.000150496
10 *2359:D *131:44 1.33285e-05
11 *2359:D *153:61 0.000742993
12 *2359:D *201:48 6.39469e-05
13 *29:12 *125:16 0.000899858
14 *29:12 *131:44 0
15 *29:12 *169:22 0
16 *29:12 *184:54 0.000849575
17 *29:12 *186:36 0.000189436
18 *29:12 *195:50 0.000196201
19 *29:12 *213:118 0.00107114
*RES
1 *2247:X *29:12 49.79 
2 *29:12 *2359:D 8.605 
*END

*D_NET *30 0.0150681
*CONN
*I *580:DIODE I *D sky130_fd_sc_hd__diode_2
*I *2360:D I *D sky130_fd_sc_hd__dfrtp_4
*I *2252:X O *D sky130_fd_sc_hd__buf_1
*CAP
1 *580:DIODE 3.39485e-05
2 *2360:D 8.97439e-05
3 *2252:X 0.00596235
4 *30:18 0.00608604
5 *580:DIODE *183:67 4.77807e-05
6 *2360:D *2360:CLK 6.488e-05
7 *30:18 *254:DIODE 9.61344e-05
8 *30:18 *2290:A 0.000188781
9 *30:18 *2360:CLK 4.28112e-06
10 *30:18 *2364:D 0.000140333
11 *30:18 *2373:RESET_B 0.000333359
12 *30:18 *42:26 1.70364e-05
13 *30:18 *71:22 0
14 *30:18 *74:10 0.000456558
15 *30:18 *90:24 0.000131706
16 *30:18 *97:24 0
17 *30:18 *136:50 0
18 *30:18 *143:28 2.25746e-05
19 *30:18 *163:60 0.000163206
20 *30:18 *171:120 5.83121e-06
21 *30:18 *171:135 8.25446e-05
22 *30:18 *174:28 0.000453097
23 *30:18 *203:50 0.000479574
24 *30:18 *218:34 0.000208292
25 *2379:A *30:18 0
*RES
1 *2252:X *30:18 36.4659 
2 *30:18 *2360:D 5.43 
3 *30:18 *580:DIODE 4.05 
*END

*D_NET *31 0.0275507
*CONN
*I *2342:D I *D sky130_fd_sc_hd__dfrtp_4
*I *550:DIODE I *D sky130_fd_sc_hd__diode_2
*I *2195:X O *D sky130_fd_sc_hd__buf_1
*CAP
1 *2342:D 3.54611e-05
2 *550:DIODE 0.000126516
3 *2195:X 0.00741201
4 *31:24 0.00757399
5 *550:DIODE *2362:CLK 7.23533e-05
6 *550:DIODE *175:206 4.9968e-05
7 *550:DIODE *175:219 2.95721e-05
8 *550:DIODE *211:10 0.000134245
9 *550:DIODE *211:38 5.35969e-06
10 *2342:D *2342:CLK 4.66108e-05
11 *2342:D *2342:RESET_B 6.77501e-05
12 *2342:D *194:20 0.000114361
13 *31:24 *2248:B_N 0.000180373
14 *31:24 *2341:RESET_B 0
15 *31:24 *2358:RESET_B 0.00109008
16 *31:24 *2373:RESET_B 0.0001169
17 *31:24 *34:8 0.000484504
18 *31:24 *66:32 0.00198994
19 *31:24 *67:26 0
20 *31:24 *115:112 2.75538e-05
21 *31:24 *127:26 0.000158591
22 *31:24 *158:24 0.000996047
23 *31:24 *175:219 1.0145e-05
24 *31:24 *179:10 0.000515705
25 *31:24 *179:30 0.000185571
26 *31:24 *191:12 0.000479133
27 *31:24 *193:50 6.17895e-06
28 *31:24 *193:72 0
29 *31:24 *199:116 0.000525832
30 *31:24 *203:56 0.000273175
31 *31:24 *211:10 1.7635e-05
32 *31:24 *214:68 0
33 *2300:A *31:24 0
34 *28:28 *31:24 0.00482513
*RES
1 *2195:X *31:24 36.3726 
2 *31:24 *550:DIODE 6.03 
3 *31:24 *2342:D 5.085 
*END

*D_NET *32 0.00281729
*CONN
*I *2361:D I *D sky130_fd_sc_hd__dfrtp_4
*I *2255:Y O *D sky130_fd_sc_hd__nor2_1
*CAP
1 *2361:D 0.000365259
2 *2255:Y 0.000365259
3 *2361:D *2255:B 5.83121e-06
4 *2361:D *127:26 0.00019668
5 *2361:D *147:10 0.000606989
6 *2361:D *179:194 0.001176
7 *2361:D *192:26 5.83121e-06
8 *26:12 *2361:D 9.54399e-05
*RES
1 *2255:Y *2361:D 21.27 
*END

*D_NET *33 0.0141158
*CONN
*I *2362:D I *D sky130_fd_sc_hd__dfrtp_4
*I *584:DIODE I *D sky130_fd_sc_hd__diode_2
*I *2256:X O *D sky130_fd_sc_hd__xor2_1
*CAP
1 *2362:D 0.00061669
2 *584:DIODE 0
3 *2256:X 0.00142395
4 *33:26 0.00161821
5 *33:16 0.00242548
6 *2362:D *109:22 0.000208484
7 *2362:D *189:16 0.000208484
8 *2362:D *203:50 4.52061e-05
9 *33:16 *2256:A 2.76356e-05
10 *33:16 *2256:B 4.66108e-05
11 *33:16 *106:14 0.000198301
12 *33:16 *122:37 0.000266164
13 *33:16 *122:87 0.00160679
14 *33:16 *193:10 0.000199961
15 *33:16 *196:16 0.00095665
16 *33:16 *196:18 0.000293807
17 *33:26 *331:DIODE 4.38278e-05
18 *33:26 *389:DIODE 0.00016031
19 *33:26 *2222:B 0.000153816
20 *33:26 *2223:B 0.000333987
21 *33:26 *2245:C 8.53224e-05
22 *33:26 *2342:RESET_B 0.000147602
23 *33:26 *41:22 0.000167994
24 *33:26 *75:38 0.000814211
25 *33:26 *122:87 2.2923e-05
26 *33:26 *134:75 2.14725e-05
27 *33:26 *138:28 9.79111e-05
28 *33:26 *151:69 0.000266361
29 *33:26 *196:16 0.00129373
30 *33:26 *199:142 7.02478e-06
31 *33:26 *203:50 1.1392e-05
32 *33:26 *214:14 0.000345516
*RES
1 *2256:X *33:16 40.565 
2 *33:16 *33:26 32.725 
3 *33:26 *584:DIODE 1.6 
4 *33:26 *2362:D 15.35 
*END

*D_NET *34 0.0187416
*CONN
*I *2363:D I *D sky130_fd_sc_hd__dfrtp_4
*I *587:DIODE I *D sky130_fd_sc_hd__diode_2
*I *2260:X O *D sky130_fd_sc_hd__buf_1
*CAP
1 *2363:D 0.000345918
2 *587:DIODE 0
3 *2260:X 0
4 *34:12 0.00170433
5 *34:8 0.00338915
6 *34:6 0.00203073
7 *2363:D *2363:CLK 7.60965e-05
8 *2363:D *197:18 0.000106649
9 *34:8 *599:DIODE 0
10 *34:8 *2343:RESET_B 0
11 *34:8 *2350:RESET_B 0
12 *34:8 *57:14 0.000245212
13 *34:8 *66:32 0.000250617
14 *34:8 *106:68 0.000152186
15 *34:8 *171:135 0.00081433
16 *34:8 *179:10 0.00345934
17 *34:8 *179:82 0
18 *34:8 *199:116 0.000253837
19 *34:8 *203:50 0
20 *34:8 *203:56 0.00145262
21 *34:12 *276:DIODE 0.000241483
22 *34:12 *2305:A 0.000241483
23 *34:12 *170:44 0.00298197
24 *34:12 *197:18 0.000349923
25 *34:12 *205:14 4.60584e-05
26 *34:12 *205:22 0.000115146
27 *31:24 *34:8 0.000484504
*RES
1 *2260:X *34:6 3.6 
2 *34:6 *34:8 56.46 
3 *34:8 *34:12 36.95 
4 *34:12 *587:DIODE 1.6 
5 *34:12 *2363:D 6.3925 
*END

*D_NET *35 0.0173057
*CONN
*I *2364:D I *D sky130_fd_sc_hd__dfrtp_2
*I *590:DIODE I *D sky130_fd_sc_hd__diode_2
*I *2261:Y O *D sky130_fd_sc_hd__xnor2_1
*CAP
1 *2364:D 0.000173364
2 *590:DIODE 0
3 *2261:Y 0.0019037
4 *35:30 0.00147558
5 *35:20 0.00320592
6 *2364:D *41:24 8.41419e-05
7 *2364:D *143:28 0.000417626
8 *2364:D *170:96 5.61806e-05
9 *2364:D *171:135 3.63576e-05
10 *35:20 *2261:B 5.13714e-05
11 *35:20 *2367:RESET_B 0.00122596
12 *35:20 *147:26 0
13 *35:20 *167:48 0
14 *35:20 *195:72 8.90199e-05
15 *35:20 *219:24 0.000484962
16 *35:30 *2342:RESET_B 0.000387551
17 *35:30 *143:24 0.0027809
18 *35:30 *143:28 0.00070884
19 *35:30 *171:116 5.25834e-05
20 *35:30 *171:120 0.000452707
21 *35:30 *171:135 0.000122202
22 *35:30 *178:16 0.000462128
23 *35:30 *190:44 0.000153816
24 *35:30 *190:46 0.00233908
25 *35:30 *214:14 0.000385687
26 *35:30 *219:26 0.000115705
27 *30:18 *2364:D 0.000140333
*RES
1 *2261:Y *35:20 34.815 
2 *35:20 *35:30 47.545 
3 *35:30 *590:DIODE 1.6 
4 *35:30 *2364:D 11.39 
*END

*D_NET *36 0.0189374
*CONN
*I *2365:D I *D sky130_fd_sc_hd__dfrtp_4
*I *593:DIODE I *D sky130_fd_sc_hd__diode_2
*I *2265:X O *D sky130_fd_sc_hd__xor2_1
*CAP
1 *2365:D 0.000134362
2 *593:DIODE 0
3 *2265:X 0.00756044
4 *36:30 0.0076948
5 *2365:D *2282:B 7.90356e-06
6 *2365:D *103:34 8.99926e-05
7 *2365:D *161:16 0.000120655
8 *2365:D *177:126 6.1357e-05
9 *2365:D *177:136 5.83121e-06
10 *2365:D *179:54 0.000101693
11 *36:30 *2265:B 0.000383046
12 *36:30 *2272:C 3.60648e-06
13 *36:30 *2282:B 1.71013e-05
14 *36:30 *2289:C 0.000158544
15 *36:30 *2369:D 0
16 *36:30 *42:26 0.000583956
17 *36:30 *51:16 1.25098e-05
18 *36:30 *103:14 0.000484473
19 *36:30 *103:34 2.00272e-05
20 *36:30 *107:12 0
21 *36:30 *136:50 0
22 *36:30 *141:68 1.35153e-05
23 *36:30 *151:96 7.4235e-05
24 *36:30 *178:48 0.000120926
25 *36:30 *178:74 0.000147171
26 *36:30 *181:166 0.000102557
27 *36:30 *182:113 0.000128703
28 *36:30 *182:128 0.000119325
29 *36:30 *192:92 0.000163314
30 *16:10 *36:30 0.000429505
31 *21:22 *36:30 0.000197858
*RES
1 *2265:X *36:30 25.3828 
2 *36:30 *593:DIODE 3.6 
3 *36:30 *2365:D 6.93 
*END

*D_NET *37 0.0164298
*CONN
*I *2366:D I *D sky130_fd_sc_hd__dfrtp_2
*I *595:DIODE I *D sky130_fd_sc_hd__diode_2
*I *2268:Y O *D sky130_fd_sc_hd__nor2_1
*CAP
1 *2366:D 0.000217899
2 *595:DIODE 0
3 *2268:Y 0.000511672
4 *37:16 0.00100529
5 *37:12 0.00336304
6 *37:10 0.00308732
7 *2366:D *103:18 0.000182247
8 *2366:D *106:68 5.80063e-05
9 *2366:D *106:88 1.57817e-05
10 *2366:D *179:30 0.000199303
11 *37:10 *114:10 0.000594357
12 *37:12 *538:DIODE 0.000233561
13 *37:12 *2202:A 8.06138e-05
14 *37:12 *2202:B 4.66108e-05
15 *37:12 *2345:D 0.000592747
16 *37:12 *2352:RESET_B 0.0012181
17 *37:12 *106:62 0.00154739
18 *37:12 *152:30 8.34281e-06
19 *37:12 *152:44 0.00217457
20 *37:12 *200:48 8.34281e-06
21 *37:12 *209:43 0.000310796
22 *37:16 *103:18 0.000855956
23 *37:16 *106:62 0.000117887
*RES
1 *2268:Y *37:10 17.69 
2 *37:10 *37:12 51.855 
3 *37:12 *37:16 10.47 
4 *37:16 *595:DIODE 1.6 
5 *37:16 *2366:D 9.83 
*END

*D_NET *38 0.00611815
*CONN
*I *2367:D I *D sky130_fd_sc_hd__dfrtp_2
*I *2269:X O *D sky130_fd_sc_hd__xor2_1
*CAP
1 *2367:D 0.00148274
2 *2269:X 0.00148274
3 *2367:D *2234:B 9.30787e-05
4 *2367:D *2367:CLK 8.88715e-05
5 *2367:D *2367:RESET_B 0.000484651
6 *2367:D *116:50 5.18317e-06
7 *2367:D *174:72 0.00051855
8 *2367:D *186:36 5.33153e-05
9 *2367:D *188:30 0.000836958
10 *2367:D *188:34 8.95088e-05
11 *2367:D *196:44 0.000415979
12 *2367:D *219:24 0.000566577
*RES
1 *2269:X *2367:D 40.41 
*END

*D_NET *39 0.00929488
*CONN
*I *2368:D I *D sky130_fd_sc_hd__dfrtp_1
*I *2273:X O *D sky130_fd_sc_hd__o21ba_1
*CAP
1 *2368:D 0.00045178
2 *2273:X 0.00110441
3 *39:28 0.00155619
4 *2368:D *2249:D 0.00032583
5 *2368:D *2281:A 0.000452214
6 *2368:D *2281:B 0.000248393
7 *2368:D *2377:D 0.000275982
8 *2368:D *141:58 8.32607e-05
9 *2368:D *173:14 1.88656e-05
10 *2368:D *173:52 0.000206046
11 *2368:D *199:92 1.77665e-05
12 *39:28 *313:DIODE 3.23391e-05
13 *39:28 *2193:B 0.000100652
14 *39:28 *2223:B 7.2779e-05
15 *39:28 *2281:A 8.7435e-05
16 *39:28 *2281:B 1.71207e-05
17 *39:28 *2341:CLK 0.000219471
18 *39:28 *2353:CLK 4.22837e-05
19 *39:28 *2377:D 0.000964856
20 *39:28 *2381:A 0.000116183
21 *39:28 *80:16 4.43871e-06
22 *39:28 *107:12 0.000560289
23 *39:28 *113:22 9.87814e-05
24 *39:28 *175:33 0.000249295
25 *39:28 *189:28 0.000732111
26 *39:28 *202:62 0.000193286
27 *39:28 *213:182 0.000473027
28 *2353:D *39:28 0
29 *17:24 *39:28 0.000589798
*RES
1 *2273:X *39:28 39.7525 
2 *39:28 *2368:D 17.0325 
*END

*D_NET *40 0.0166553
*CONN
*I *2369:D I *D sky130_fd_sc_hd__dfrtp_4
*I *2276:Y O *D sky130_fd_sc_hd__nor2_1
*CAP
1 *2369:D 0.00660854
2 *2276:Y 0.00660854
3 *2369:D *2178:A 0.00023549
4 *2369:D *2276:B 8.52972e-05
5 *2369:D *2350:CLK 0.00012905
6 *2369:D *2350:D 0.000143637
7 *2369:D *2360:RESET_B 6.50572e-05
8 *2369:D *2363:RESET_B 0.000269343
9 *2369:D *90:24 0.000347324
10 *2369:D *170:34 1.92979e-05
11 *2369:D *174:54 0.000113137
12 *2369:D *179:104 0.000115733
13 *2369:D *179:118 0.00105193
14 *2369:D *183:67 0.000187609
15 *2369:D *189:70 4.77769e-05
16 *2369:D *194:73 0.00022496
17 *2369:D *194:75 0.000249049
18 *2369:D *205:28 0.000153502
19 *36:30 *2369:D 0
*RES
1 *2276:Y *2369:D 30.5369 
*END

*D_NET *41 0.0210963
*CONN
*I *2370:D I *D sky130_fd_sc_hd__dfrtp_4
*I *601:DIODE I *D sky130_fd_sc_hd__diode_2
*I *2278:X O *D sky130_fd_sc_hd__o21a_1
*CAP
1 *2370:D 0.000310789
2 *601:DIODE 0
3 *2278:X 0.00182115
4 *41:28 0.00129701
5 *41:24 0.00248606
6 *41:22 0.00332099
7 *2370:D *177:170 0
8 *2370:D *204:24 0.000207001
9 *41:22 *331:DIODE 0.00010978
10 *41:22 *2364:CLK 4.70494e-05
11 *41:22 *2364:RESET_B 0.000102211
12 *41:22 *75:38 7.10593e-06
13 *41:22 *122:87 0.000559757
14 *41:22 *151:96 0.000311659
15 *41:22 *169:108 0.000382531
16 *41:22 *169:125 3.6355e-05
17 *41:22 *190:88 0.00022797
18 *41:22 *213:12 5.77037e-05
19 *41:24 *47:12 0.00266817
20 *41:24 *65:16 0.000291627
21 *41:24 *66:32 0.000917828
22 *41:24 *110:10 0.00394579
23 *41:24 *170:96 0
24 *41:24 *179:10 0
25 *41:24 *186:100 1.97849e-05
26 *41:24 *186:113 2.23407e-05
27 *41:24 *200:72 0.000439833
28 *41:28 *65:16 0.000502088
29 *41:28 *110:10 0.000680921
30 *41:28 *177:170 0
31 *2353:D *41:24 7.06865e-05
32 *2364:D *41:24 8.41419e-05
33 *33:26 *41:22 0.000167994
*RES
1 *2278:X *41:22 36.325 
2 *41:22 *41:24 53.655 
3 *41:24 *41:28 22.485 
4 *41:28 *601:DIODE 3.6 
5 *41:28 *2370:D 8.11875 
*END

*D_NET *42 0.0169717
*CONN
*I *552:DIODE I *D sky130_fd_sc_hd__diode_2
*I *2343:D I *D sky130_fd_sc_hd__dfrtp_4
*I *2196:Y O *D sky130_fd_sc_hd__xnor2_1
*CAP
1 *552:DIODE 4.38763e-05
2 *2343:D 0
3 *2196:Y 0.0070705
4 *42:26 0.00711438
5 *552:DIODE *2343:CLK 0.000124471
6 *552:DIODE *2343:RESET_B 0.00023682
7 *552:DIODE *220:38 5.7838e-05
8 *42:26 *2196:B 0
9 *42:26 *75:38 0.000175475
10 *42:26 *103:34 0
11 *42:26 *136:50 3.3616e-05
12 *42:26 *161:16 0.000270051
13 *42:26 *177:12 0.000140472
14 *42:26 *180:20 8.41703e-06
15 *42:26 *183:150 0.000438428
16 *42:26 *196:16 0.000163288
17 *42:26 *196:70 0.00010833
18 *42:26 *199:142 0.00014535
19 *42:26 *214:14 1.79536e-05
20 *42:26 *216:12 0.000221495
21 *30:18 *42:26 1.70364e-05
22 *36:30 *42:26 0.000583956
*RES
1 *2196:Y *42:26 25.0161 
2 *42:26 *2343:D 1.6 
3 *42:26 *552:DIODE 3.775 
*END

*D_NET *43 0.00219184
*CONN
*I *2371:D I *D sky130_fd_sc_hd__dfrtp_2
*I *2279:Y O *D sky130_fd_sc_hd__xnor2_1
*CAP
1 *2371:D 0.000552874
2 *2279:Y 0.000552874
3 *2371:D *2279:A 0.000121659
4 *2371:D *2279:B 6.08538e-05
5 *2371:D *2290:A 0.000192502
6 *2371:D *74:10 9.68772e-05
7 *2371:D *174:18 6.31732e-05
8 *2371:D *174:24 0.000303291
9 *2371:D *206:14 3.57349e-05
10 *2371:D *214:38 6.89874e-05
11 *2371:D *219:24 0.000109489
12 *17:24 *2371:D 3.35219e-05
*RES
1 *2279:Y *2371:D 18.42 
*END

*D_NET *44 0.00620349
*CONN
*I *2372:D I *D sky130_fd_sc_hd__dfrtp_1
*I *2281:X O *D sky130_fd_sc_hd__xor2_1
*CAP
1 *2372:D 0.000846329
2 *2281:X 0.000846329
3 *2372:D *2281:A 0.00209171
4 *2372:D *2281:B 4.36573e-06
5 *2372:D *2351:RESET_B 4.42061e-05
6 *2372:D *134:175 0.00126283
7 *2372:D *163:60 0.00015777
8 *2372:D *186:100 4.82863e-05
9 *2372:D *208:14 4.29069e-05
10 *2353:D *2372:D 0.000858767
*RES
1 *2281:X *2372:D 35.16 
*END

*D_NET *45 0.00700826
*CONN
*I *2344:D I *D sky130_fd_sc_hd__dfrtp_2
*I *2201:X O *D sky130_fd_sc_hd__buf_1
*CAP
1 *2344:D 0.00100814
2 *2201:X 0.00162341
3 *45:12 0.00263155
4 *2344:D *177:23 6.51658e-05
5 *45:12 *2201:A 7.53034e-05
6 *45:12 *2226:B 5.02217e-05
7 *45:12 *102:10 0
8 *45:12 *108:30 0.00155448
9 *45:12 *187:12 0
*RES
1 *2201:X *45:12 37.535 
2 *45:12 *2344:D 14.125 
*END

*D_NET *46 0.00721436
*CONN
*I *2345:D I *D sky130_fd_sc_hd__dfrtp_4
*I *2202:X O *D sky130_fd_sc_hd__xor2_1
*CAP
1 *2345:D 0.000877165
2 *2202:X 0.000877165
3 *2345:D *2202:A 0.00034081
4 *2345:D *101:26 0.000272471
5 *2345:D *116:50 9.50342e-06
6 *2345:D *145:12 0.000202975
7 *2345:D *162:8 0.0016501
8 *2345:D *201:67 0.00205414
9 *2345:D *209:43 0.000262813
10 *2345:D *209:142 7.44647e-05
11 *37:12 *2345:D 0.000592747
*RES
1 *2202:X *2345:D 39.195 
*END

*D_NET *47 0.0144106
*CONN
*I *2346:D I *D sky130_fd_sc_hd__dfrtp_4
*I *2205:Y O *D sky130_fd_sc_hd__nor2_1
*CAP
1 *2346:D 0.000923044
2 *2205:Y 0.001174
3 *47:12 0.00209705
4 *2346:D *474:DIODE 0.00015639
5 *2346:D *95:18 4.4908e-05
6 *2346:D *100:99 5.44505e-05
7 *2346:D *119:8 0.000630739
8 *2346:D *134:113 0.000158501
9 *2346:D *148:14 0.00246642
10 *2346:D *178:95 6.4201e-05
11 *47:12 *2205:B 0.000160338
12 *47:12 *52:12 0.000499184
13 *47:12 *65:16 8.18259e-05
14 *47:12 *66:32 0.000661931
15 *47:12 *109:46 0.00045517
16 *47:12 *110:14 4.95797e-05
17 *47:12 *179:10 0
18 *47:12 *186:100 0.000868561
19 *47:12 *189:28 0.000161953
20 *2353:D *2346:D 0.00103416
21 *41:24 *47:12 0.00266817
*RES
1 *2205:Y *47:12 44.165 
2 *47:12 *2346:D 34.7 
*END

*D_NET *48 0.0135624
*CONN
*I *2347:D I *D sky130_fd_sc_hd__dfrtp_4
*I *2209:X O *D sky130_fd_sc_hd__buf_1
*CAP
1 *2347:D 0.000330351
2 *2209:X 0.0012657
3 *48:16 0.00229776
4 *48:8 0.0032331
5 *2347:D *2347:CLK 6.97034e-05
6 *2347:D *113:22 0.000781101
7 *48:8 *2184:C 0.000154981
8 *48:8 *2242:A 4.82919e-05
9 *48:8 *2242:C 0.000193801
10 *48:8 *113:32 0.000403813
11 *48:8 *169:40 0.000111392
12 *48:8 *204:112 0.000119242
13 *48:16 *548:DIODE 7.14699e-05
14 *48:16 *2186:D_N 0.00015639
15 *48:16 *2339:A 0.00015639
16 *48:16 *73:18 0.00106421
17 *48:16 *169:40 8.78193e-05
18 *48:16 *174:173 0.000265271
19 *48:16 *190:118 0.00033764
20 *48:16 *196:10 0.000710207
21 *48:16 *200:14 0.000346117
22 *48:16 *211:38 0.00135761
*RES
1 *2209:X *48:8 17.245 
2 *48:8 *48:16 44.17 
3 *48:16 *2347:D 8.95 
*END

*D_NET *49 0.00946357
*CONN
*I *2348:D I *D sky130_fd_sc_hd__dfrtp_2
*I *2213:Y O *D sky130_fd_sc_hd__a21oi_1
*CAP
1 *2348:D 0.00111199
2 *2213:Y 0.00124098
3 *49:12 0.00235297
4 *2348:D *608:DIODE 6.69341e-05
5 *2348:D *2310:A 2.11084e-05
6 *2348:D *2338:A 5.062e-06
7 *2348:D *2348:CLK 6.98546e-05
8 *2348:D *2375:CLK 3.45588e-05
9 *2348:D *2375:RESET_B 0.000136156
10 *2348:D *212:10 8.88523e-06
11 *49:12 *2195:A 0.000239807
12 *49:12 *2213:B1 6.2507e-05
13 *49:12 *2246:B 0.00193428
14 *49:12 *106:134 0.000111158
15 *49:12 *116:84 0.000382629
16 *49:12 *118:24 0.00167886
17 *49:12 *178:99 0
18 *49:12 *213:118 0
19 *49:12 *213:144 0
20 *2375:D *2348:D 5.83121e-06
*RES
1 *2213:Y *49:12 39.065 
2 *49:12 *2348:D 15.0887 
*END

*D_NET *50 0.00415174
*CONN
*I *2349:D I *D sky130_fd_sc_hd__dfrtp_4
*I *2215:Y O *D sky130_fd_sc_hd__a21oi_1
*CAP
1 *2349:D 0.000680226
2 *2215:Y 0.000680226
3 *2349:D *2223:B 0.000196527
4 *2349:D *2349:CLK 4.82863e-05
5 *2349:D *2349:RESET_B 3.00381e-05
6 *2349:D *2377:D 0.000926393
7 *2349:D *51:16 0
8 *2349:D *107:12 0.00159004
*RES
1 *2215:Y *2349:D 27.135 
*END

*D_NET *51 0.00998336
*CONN
*I *2350:D I *D sky130_fd_sc_hd__dfrtp_4
*I *2223:Y O *D sky130_fd_sc_hd__nor2_1
*CAP
1 *2350:D 0.000227789
2 *2223:Y 0.00224692
3 *51:16 0.00247471
4 *2350:D *276:DIODE 4.54403e-05
5 *2350:D *2350:CLK 6.01418e-05
6 *2350:D *179:104 0.000792794
7 *2350:D *205:28 0.000648059
8 *51:16 *2215:A1 0.000170942
9 *51:16 *2219:D 1.5085e-05
10 *51:16 *2223:B 6.03767e-05
11 *51:16 *2289:C 0.000502163
12 *51:16 *2377:D 6.66273e-05
13 *51:16 *2380:A 2.24833e-05
14 *51:16 *95:24 0.000730188
15 *51:16 *107:12 0
16 *51:16 *119:24 7.14699e-05
17 *51:16 *119:26 1.08758e-05
18 *51:16 *159:18 8.23457e-05
19 *51:16 *171:86 0
20 *51:16 *171:92 0
21 *51:16 *172:62 0
22 *51:16 *174:173 0.000460913
23 *51:16 *190:16 0.00041864
24 *51:16 *210:101 0
25 *51:16 *212:32 0.000584731
26 *51:16 *219:24 0.000134516
27 *2349:D *51:16 0
28 *2369:D *2350:D 0.000143637
29 *36:30 *51:16 1.25098e-05
*RES
1 *2223:Y *51:16 49.07 
2 *51:16 *2350:D 10.795 
*END

*D_NET *52 0.0114491
*CONN
*I *2341:RESET_B I *D sky130_fd_sc_hd__dfrtp_4
*I *2302:Y O *D sky130_fd_sc_hd__inv_2
*CAP
1 *2341:RESET_B 0.00116667
2 *2302:Y 0.00148134
3 *52:12 0.002648
4 *2341:RESET_B *2245:A 6.76754e-05
5 *2341:RESET_B *2245:C 0.000100649
6 *2341:RESET_B *75:38 2.44194e-05
7 *2341:RESET_B *138:28 0
8 *2341:RESET_B *183:12 1.79536e-05
9 *2341:RESET_B *218:52 0.00015624
10 *52:12 *65:16 0.00233572
11 *52:12 *66:32 0.000780366
12 *52:12 *128:16 0.000232111
13 *52:12 *177:31 0.000163019
14 *52:12 *179:10 0.00127578
15 *52:12 *179:30 0.000371798
16 *52:12 *179:54 0.000128197
17 *31:24 *2341:RESET_B 0
18 *47:12 *52:12 0.000499184
*RES
1 *2302:Y *52:12 48.8375 
2 *52:12 *2341:RESET_B 6.296 
*END

*D_NET *53 0.00740287
*CONN
*I *2342:RESET_B I *D sky130_fd_sc_hd__dfrtp_4
*I *2303:Y O *D sky130_fd_sc_hd__inv_2
*CAP
1 *2342:RESET_B 0.00139019
2 *2303:Y 0.00139019
3 *2342:RESET_B *2303:A 0.000123492
4 *2342:RESET_B *2342:CLK 8.23457e-05
5 *2342:RESET_B *138:28 0.000413343
6 *2342:RESET_B *169:102 0.000842284
7 *2342:RESET_B *169:108 7.43938e-05
8 *2342:RESET_B *169:160 0.000301879
9 *2342:RESET_B *175:84 0.000121817
10 *2342:RESET_B *175:189 0.000174612
11 *2342:RESET_B *175:195 6.44879e-05
12 *2342:RESET_B *180:20 0.000117283
13 *2342:RESET_B *194:20 0.00147121
14 *2342:RESET_B *214:14 0.000160077
15 *2342:D *2342:RESET_B 6.77501e-05
16 *2373:D *2342:RESET_B 7.23533e-05
17 *33:26 *2342:RESET_B 0.000147602
18 *35:30 *2342:RESET_B 0.000387551
*RES
1 *2303:Y *2342:RESET_B 42.6275 
*END

*D_NET *54 0.00600489
*CONN
*I *2343:RESET_B I *D sky130_fd_sc_hd__dfrtp_4
*I *2304:Y O *D sky130_fd_sc_hd__inv_2
*CAP
1 *2343:RESET_B 0.00218261
2 *2304:Y 0.00218261
3 *2343:RESET_B *599:DIODE 6.12338e-06
4 *2343:RESET_B *2343:CLK 8.43407e-05
5 *2343:RESET_B *2350:RESET_B 0.000104694
6 *2343:RESET_B *2369:CLK 4.76437e-05
7 *2343:RESET_B *2369:RESET_B 1.58529e-05
8 *2343:RESET_B *80:26 0.000107465
9 *2343:RESET_B *109:28 0
10 *2343:RESET_B *136:50 0
11 *2343:RESET_B *170:76 0.000468639
12 *2343:RESET_B *175:108 2.6348e-06
13 *2343:RESET_B *179:82 0.000260457
14 *2343:RESET_B *220:38 0.000304994
15 *552:DIODE *2343:RESET_B 0.00023682
16 *34:8 *2343:RESET_B 0
*RES
1 *2304:Y *2343:RESET_B 38.2625 
*END

*D_NET *55 0.0162384
*CONN
*I *2344:RESET_B I *D sky130_fd_sc_hd__dfrtp_2
*I *554:DIODE I *D sky130_fd_sc_hd__diode_2
*I *2305:Y O *D sky130_fd_sc_hd__inv_2
*CAP
1 *2344:RESET_B 0.000106217
2 *554:DIODE 5.01881e-05
3 *2305:Y 0.00132787
4 *55:20 0.00121918
5 *55:14 0.00239065
6 *554:DIODE *115:70 8.53113e-06
7 *554:DIODE *154:10 6.28765e-05
8 *554:DIODE *161:16 2.97122e-05
9 *554:DIODE *177:12 1.52184e-05
10 *2344:RESET_B *177:23 0.000269372
11 *2344:RESET_B *208:6 4.59515e-05
12 *55:14 *613:DIODE 0.000114492
13 *55:14 *2188:C 0.000295911
14 *55:14 *2278:A2 0.000439661
15 *55:14 *94:41 0
16 *55:14 *97:24 0.000129129
17 *55:14 *123:20 0.000704003
18 *55:14 *197:18 1.68997e-05
19 *55:14 *197:20 0.00302018
20 *55:20 *522:DIODE 0.000184192
21 *55:20 *2299:A1 0.000592928
22 *55:20 *97:24 0.000257314
23 *55:20 *117:24 3.53604e-05
24 *55:20 *123:20 0.00101924
25 *55:20 *144:37 0.000387075
26 *55:20 *144:43 9.37731e-05
27 *55:20 *171:66 0.000191226
28 *55:20 *177:23 8.49205e-05
29 *55:20 *181:144 0.00190926
30 *55:20 *191:74 0.000234487
31 *55:20 *197:20 0.000220349
32 *55:20 *203:78 0.000447493
33 *55:20 *206:56 0.000137996
34 *55:20 *208:6 0.00019669
35 *21:24 *55:14 0
*RES
1 *2305:Y *55:14 41.4675 
2 *55:14 *55:20 37.4225 
3 *55:20 *554:DIODE 6.98 
4 *55:20 *2344:RESET_B 2.8275 
*END

*D_NET *56 0.0182517
*CONN
*I *556:DIODE I *D sky130_fd_sc_hd__diode_2
*I *2345:RESET_B I *D sky130_fd_sc_hd__dfrtp_4
*I *2306:Y O *D sky130_fd_sc_hd__inv_2
*CAP
1 *556:DIODE 0.000142922
2 *2345:RESET_B 0.000279824
3 *2306:Y 0.0022505
4 *56:20 0.00143364
5 *56:16 0.00326139
6 *556:DIODE *116:50 0.000182143
7 *2345:RESET_B *113:32 3.52139e-06
8 *2345:RESET_B *116:50 0.000256349
9 *56:16 *66:32 0.0026175
10 *56:16 *67:26 0.000158614
11 *56:16 *170:129 0.000319808
12 *56:16 *184:144 0.000135393
13 *56:16 *195:132 0.000954035
14 *56:16 *204:24 2.27549e-06
15 *56:20 *2376:RESET_B 0.000456133
16 *56:20 *96:46 0.0032204
17 *56:20 *182:80 1.06022e-05
18 *56:20 *191:52 0.000548779
19 *56:20 *193:22 1.88602e-05
20 *56:20 *198:68 1.11338e-05
21 *56:20 *210:12 0.00137632
22 *19:10 *56:20 0.000416833
23 *28:28 *56:16 0.000194751
*RES
1 *2306:Y *56:16 18.2797 
2 *56:16 *56:20 40.4825 
3 *56:20 *2345:RESET_B 3.9675 
4 *56:20 *556:DIODE 3.43 
*END

*D_NET *57 0.00976169
*CONN
*I *2346:RESET_B I *D sky130_fd_sc_hd__dfrtp_4
*I *2307:Y O *D sky130_fd_sc_hd__inv_2
*CAP
1 *2346:RESET_B 0.000144329
2 *2307:Y 0.0030893
3 *57:14 0.00323363
4 *2346:RESET_B *100:99 1.87968e-05
5 *2346:RESET_B *212:12 0.000263556
6 *57:14 *2229:B 0.000193801
7 *57:14 *2260:A 0.000121547
8 *57:14 *2307:A 0.000124471
9 *57:14 *2391:A 0.000342914
10 *57:14 *106:68 6.99988e-05
11 *57:14 *148:20 0.000136884
12 *57:14 *170:96 0.0001947
13 *57:14 *170:208 0.000712091
14 *57:14 *179:10 1.1561e-05
15 *57:14 *186:113 0.000269904
16 *57:14 *192:61 3.35934e-05
17 *57:14 *192:76 0.000105103
18 *57:14 *192:120 0.000106067
19 *2353:D *57:14 8.23457e-05
20 *21:24 *2346:RESET_B 0.000261889
21 *34:8 *57:14 0.000245212
*RES
1 *2307:Y *57:14 48.65 
2 *57:14 *2346:RESET_B 7.9075 
*END

*D_NET *58 0.0188668
*CONN
*I *2347:RESET_B I *D sky130_fd_sc_hd__dfrtp_4
*I *559:DIODE I *D sky130_fd_sc_hd__diode_2
*I *2308:Y O *D sky130_fd_sc_hd__inv_2
*CAP
1 *2347:RESET_B 0
2 *559:DIODE 0.000286592
3 *2308:Y 0.00238137
4 *58:26 0.00040354
5 *58:18 0.00176352
6 *58:16 0.00402793
7 *559:DIODE *175:219 0.000164679
8 *559:DIODE *194:20 0.000340209
9 *559:DIODE *211:10 0.00011852
10 *559:DIODE *211:60 4.61595e-05
11 *58:16 *2308:A 0.000200615
12 *58:16 *2334:A 4.82919e-05
13 *58:16 *65:8 0.000194228
14 *58:16 *104:34 0.0018978
15 *58:16 *170:155 1.12578e-05
16 *58:16 *171:198 0.000754775
17 *58:16 *171:211 6.43067e-05
18 *58:16 *171:230 0.000159947
19 *58:18 *2207:A 5.04484e-05
20 *58:18 *67:26 0.000324405
21 *58:18 *81:14 0.00112026
22 *58:18 *111:10 0.000412044
23 *58:18 *134:113 0.0013917
24 *58:18 *134:126 0.0001752
25 *58:18 *184:155 3.57846e-05
26 *58:18 *184:161 0.000354379
27 *58:18 *192:126 0
28 *58:18 *211:60 0.00178778
29 *58:18 *211:118 5.21046e-05
30 *58:26 *175:219 8.5242e-05
31 *58:26 *211:60 9.30717e-05
32 *58:26 *217:32 0.000120655
*RES
1 *2308:Y *58:16 49.83 
2 *58:16 *58:18 52.125 
3 *58:18 *58:26 6.265 
4 *58:26 *559:DIODE 8.7 
5 *58:26 *2347:RESET_B 2 
*END

*D_NET *59 0.00647323
*CONN
*I *2348:RESET_B I *D sky130_fd_sc_hd__dfrtp_2
*I *2309:Y O *D sky130_fd_sc_hd__inv_2
*CAP
1 *2348:RESET_B 0.00206593
2 *2309:Y 0.00206593
3 *2348:RESET_B *564:DIODE 3.87166e-05
4 *2348:RESET_B *2309:A 9.47017e-05
5 *2348:RESET_B *94:16 5.05066e-06
6 *2348:RESET_B *141:114 0
7 *2348:RESET_B *170:135 0.000356094
8 *2348:RESET_B *172:188 0.000235721
9 *2348:RESET_B *176:142 0.00133296
10 *2348:RESET_B *206:88 0.000101807
11 *565:DIODE *2348:RESET_B 0.000106441
12 *21:36 *2348:RESET_B 6.98693e-05
*RES
1 *2309:Y *2348:RESET_B 43.475 
*END

*D_NET *60 0.01839
*CONN
*I *2349:RESET_B I *D sky130_fd_sc_hd__dfrtp_4
*I *562:DIODE I *D sky130_fd_sc_hd__diode_2
*I *2310:Y O *D sky130_fd_sc_hd__inv_2
*CAP
1 *2349:RESET_B 0.000300095
2 *562:DIODE 0
3 *2310:Y 0.00111084
4 *60:16 0.000639909
5 *60:14 0.00160746
6 *60:10 0.00237849
7 *2349:RESET_B *2349:CLK 0.000194749
8 *2349:RESET_B *213:12 8.88715e-05
9 *60:10 *2217:A 0
10 *60:10 *125:12 0.00105382
11 *60:10 *170:151 0.000164987
12 *60:10 *170:173 0.000278217
13 *60:10 *195:120 0.00130325
14 *60:10 *195:156 0.000808469
15 *60:10 *202:24 0.000108692
16 *60:10 *202:96 0.000958617
17 *60:10 *212:10 0.00038221
18 *60:10 *212:12 9.09109e-05
19 *60:14 *2188:C 0.000156598
20 *60:14 *117:24 4.81765e-05
21 *60:14 *121:12 0.000559445
22 *60:14 *138:28 0.000392826
23 *60:14 *159:18 0.000767914
24 *60:14 *159:24 0.000285924
25 *60:14 *167:28 9.91608e-06
26 *60:14 *202:24 0.00117265
27 *60:14 *212:12 0.00116587
28 *60:14 *212:14 6.0444e-05
29 *60:14 *212:20 0.0012144
30 *60:14 *213:24 7.03276e-05
31 *60:14 *217:26 0.000799613
32 *60:16 *219:24 0.000186293
33 *2349:D *2349:RESET_B 3.00381e-05
*RES
1 *2310:Y *60:10 39.9825 
2 *60:10 *60:14 45.3275 
3 *60:14 *60:16 5.625 
4 *60:16 *562:DIODE 1.6 
5 *60:16 *2349:RESET_B 5.9325 
*END

*D_NET *61 0.00301265
*CONN
*I *2350:RESET_B I *D sky130_fd_sc_hd__dfrtp_4
*I *2311:Y O *D sky130_fd_sc_hd__inv_2
*CAP
1 *2350:RESET_B 0.000695044
2 *2311:Y 0.000695044
3 *2350:RESET_B *599:DIODE 8.21627e-05
4 *2350:RESET_B *2350:CLK 0.000416652
5 *2350:RESET_B *170:44 8.5841e-05
6 *2350:RESET_B *175:92 0.000225094
7 *2350:RESET_B *175:108 0.00070812
8 *2343:RESET_B *2350:RESET_B 0.000104694
9 *34:8 *2350:RESET_B 0
*RES
1 *2311:Y *2350:RESET_B 21.7925 
*END

*D_NET *62 0.0017906
*CONN
*I *2351:RESET_B I *D sky130_fd_sc_hd__dfrtp_4
*I *2313:Y O *D sky130_fd_sc_hd__inv_2
*CAP
1 *2351:RESET_B 0.000390467
2 *2313:Y 0.000390467
3 *2351:RESET_B *564:DIODE 0.000186796
4 *2351:RESET_B *2183:A 0.000131986
5 *2351:RESET_B *2281:A 0.00024373
6 *2351:RESET_B *95:18 0.000132288
7 *2351:RESET_B *134:175 4.56567e-05
8 *2351:RESET_B *141:114 0
9 *2351:RESET_B *172:188 1.03323e-05
10 *2351:RESET_B *184:20 0.000173695
11 *2351:RESET_B *184:114 4.09813e-05
12 *2372:D *2351:RESET_B 4.42061e-05
*RES
1 *2313:Y *2351:RESET_B 15.3875 
*END

*D_NET *63 0.00646109
*CONN
*I *2352:RESET_B I *D sky130_fd_sc_hd__dfrtp_4
*I *2314:Y O *D sky130_fd_sc_hd__inv_2
*CAP
1 *2352:RESET_B 0.0015742
2 *2314:Y 0.0015742
3 *2352:RESET_B *2217:A 8.24138e-05
4 *2352:RESET_B *2365:RESET_B 0.00157724
5 *2352:RESET_B *172:206 9.08531e-05
6 *2352:RESET_B *185:14 0.00018955
7 *2352:RESET_B *202:96 0.000154519
8 *37:12 *2352:RESET_B 0.0012181
*RES
1 *2314:Y *2352:RESET_B 33.8675 
*END

*D_NET *64 0.00139112
*CONN
*I *2353:RESET_B I *D sky130_fd_sc_hd__dfrtp_4
*I *2315:Y O *D sky130_fd_sc_hd__inv_2
*CAP
1 *2353:RESET_B 0.000201691
2 *2315:Y 0.000201691
3 *2353:RESET_B *94:20 0.000471746
4 *2353:RESET_B *181:144 4.66108e-05
5 *21:24 *2353:RESET_B 0.000469378
*RES
1 *2315:Y *2353:RESET_B 11.765 
*END

*D_NET *65 0.016918
*CONN
*I *569:DIODE I *D sky130_fd_sc_hd__diode_2
*I *2354:RESET_B I *D sky130_fd_sc_hd__dfrtp_2
*I *2316:Y O *D sky130_fd_sc_hd__inv_2
*CAP
1 *569:DIODE 0
2 *2354:RESET_B 0.000277115
3 *2316:Y 0.002293
4 *65:18 0.00070632
5 *65:16 0.00198148
6 *65:8 0.00384528
7 *2354:RESET_B *2354:CLK 8.40269e-05
8 *2354:RESET_B *126:12 1.32798e-05
9 *2354:RESET_B *175:219 7.03276e-05
10 *2354:RESET_B *211:60 9.14729e-05
11 *65:8 *104:34 0.00150795
12 *65:8 *170:155 0.000159324
13 *65:16 *2270:A 0
14 *65:16 *66:32 0.000498334
15 *65:16 *106:88 0
16 *65:16 *186:100 0.000976196
17 *65:16 *186:113 4.38051e-05
18 *65:16 *195:132 5.88972e-05
19 *65:16 *200:72 0.000244716
20 *65:16 *200:106 0
21 *65:18 *2283:A 0.000595702
22 *2354:D *2354:RESET_B 6.52265e-05
23 *41:24 *65:16 0.000291627
24 *41:28 *65:16 0.000502088
25 *47:12 *65:16 8.18259e-05
26 *52:12 *65:16 0.00233572
27 *58:16 *65:8 0.000194228
*RES
1 *2316:Y *65:8 34.065 
2 *65:8 *65:16 46.265 
3 *65:16 *65:18 5.625 
4 *65:18 *2354:RESET_B 8.6275 
5 *65:18 *569:DIODE 1.6 
*END

*D_NET *66 0.0272316
*CONN
*I *2355:RESET_B I *D sky130_fd_sc_hd__dfrtp_2
*I *571:DIODE I *D sky130_fd_sc_hd__diode_2
*I *2317:Y O *D sky130_fd_sc_hd__inv_2
*CAP
1 *2355:RESET_B 0.000354793
2 *571:DIODE 0
3 *2317:Y 0.00721065
4 *66:32 0.00756544
5 *2355:RESET_B *176:65 0.000156768
6 *2355:RESET_B *176:74 7.95969e-05
7 *2355:RESET_B *188:8 8.91559e-05
8 *66:32 *67:26 2.69143e-05
9 *66:32 *94:16 0.000122594
10 *66:32 *94:20 7.07429e-05
11 *66:32 *136:50 4.49232e-05
12 *66:32 *171:135 0.000136788
13 *66:32 *176:52 0.000204735
14 *66:32 *176:63 6.68025e-05
15 *66:32 *176:65 0.00105653
16 *66:32 *176:123 4.12775e-05
17 *66:32 *179:10 0.000137434
18 *66:32 *179:82 1.88602e-05
19 *66:32 *186:100 0.000232832
20 *66:32 *195:132 6.75569e-05
21 *66:32 *200:72 0.000112211
22 *28:28 *66:32 0.00171851
23 *31:24 *66:32 0.00198994
24 *34:8 *66:32 0.000250617
25 *41:24 *66:32 0.000917828
26 *47:12 *66:32 0.000661931
27 *52:12 *66:32 0.000780366
28 *56:16 *66:32 0.0026175
29 *65:16 *66:32 0.000498334
*RES
1 *2317:Y *66:32 45.8053 
2 *66:32 *571:DIODE 1.6 
3 *66:32 *2355:RESET_B 5.9325 
*END

*D_NET *67 0.0253995
*CONN
*I *574:DIODE I *D sky130_fd_sc_hd__diode_2
*I *2356:RESET_B I *D sky130_fd_sc_hd__dfrtp_4
*I *2318:Y O *D sky130_fd_sc_hd__inv_2
*CAP
1 *574:DIODE 0
2 *2356:RESET_B 0.000280995
3 *2318:Y 0.00803334
4 *67:26 0.00831433
5 *2356:RESET_B *119:133 0.000114814
6 *2356:RESET_B *126:40 0.000117832
7 *2356:RESET_B *189:16 9.77001e-05
8 *67:26 *2213:A1 0
9 *67:26 *2216:C 0
10 *67:26 *2231:B 0
11 *67:26 *90:24 0
12 *67:26 *111:10 0.000278883
13 *67:26 *114:10 0
14 *67:26 *115:112 7.4027e-05
15 *67:26 *116:84 0
16 *67:26 *119:133 0.000397452
17 *67:26 *126:40 0.00017004
18 *67:26 *134:113 0.000233503
19 *67:26 *140:14 0.000276073
20 *67:26 *170:100 0.000235901
21 *67:26 *171:180 4.85901e-05
22 *67:26 *184:161 0.000317222
23 *67:26 *192:120 0.000147465
24 *67:26 *192:126 0.000254062
25 *67:26 *195:132 0.00290078
26 *67:26 *211:60 0.000562098
27 *2300:A *67:26 0.00162285
28 *2356:D *2356:RESET_B 0.00015639
29 *28:28 *67:26 0.000255241
30 *31:24 *67:26 0
31 *56:16 *67:26 0.000158614
32 *58:18 *67:26 0.000324405
33 *66:32 *67:26 2.69143e-05
*RES
1 *2318:Y *67:26 33.9488 
2 *67:26 *2356:RESET_B 7.0025 
3 *67:26 *574:DIODE 3.6 
*END

*D_NET *68 0.00735774
*CONN
*I *2357:RESET_B I *D sky130_fd_sc_hd__dfrtp_4
*I *2319:Y O *D sky130_fd_sc_hd__inv_2
*CAP
1 *2357:RESET_B 0.00216437
2 *2319:Y 0.00216437
3 *2357:RESET_B *578:DIODE 0.000121541
4 *2357:RESET_B *2239:A 4.99619e-05
5 *2357:RESET_B *2359:RESET_B 0.0010481
6 *2357:RESET_B *134:224 0.000158066
7 *2357:RESET_B *153:61 0.000266164
8 *2357:RESET_B *171:16 2.04748e-05
9 *2357:RESET_B *174:165 9.17751e-05
10 *2357:RESET_B *179:170 6.27029e-05
11 *2357:RESET_B *217:26 0.000112643
12 *2357:D *2357:RESET_B 0.00109758
*RES
1 *2319:Y *2357:RESET_B 33.6325 
*END

*D_NET *69 0.00843891
*CONN
*I *2358:RESET_B I *D sky130_fd_sc_hd__dfrtp_4
*I *2320:Y O *D sky130_fd_sc_hd__inv_2
*CAP
1 *2358:RESET_B 0.00150116
2 *2320:Y 0.00150116
3 *2358:RESET_B *2372:RESET_B 0.000708953
4 *2358:RESET_B *125:16 0.00269009
5 *2358:RESET_B *171:238 0.000123955
6 *2358:RESET_B *193:50 0.000662857
7 *2358:RESET_B *214:68 0.000160667
8 *31:24 *2358:RESET_B 0.00109008
*RES
1 *2320:Y *2358:RESET_B 47.54 
*END

*D_NET *70 0.0116386
*CONN
*I *2359:RESET_B I *D sky130_fd_sc_hd__dfrtp_4
*I *2321:Y O *D sky130_fd_sc_hd__inv_2
*CAP
1 *2359:RESET_B 0.000510092
2 *2321:Y 0.00142312
3 *70:12 0.00193321
4 *2359:RESET_B *441:DIODE 0.000160826
5 *2359:RESET_B *116:72 0.000136877
6 *2359:RESET_B *172:62 1.46828e-05
7 *2359:RESET_B *186:36 1.31297e-05
8 *2359:RESET_B *188:20 0.000226446
9 *2359:RESET_B *191:16 0.000138551
10 *2359:RESET_B *201:67 0.000619761
11 *70:12 *603:DIODE 4.75977e-05
12 *70:12 *2218:B 8.52522e-05
13 *70:12 *82:18 2.41454e-05
14 *70:12 *105:18 0.00134962
15 *70:12 *119:44 0
16 *70:12 *122:37 2.88519e-05
17 *70:12 *122:43 0
18 *70:12 *179:104 0.000495627
19 *70:12 *181:30 0.00168033
20 *70:12 *182:46 0.000501057
21 *70:12 *198:28 4.5783e-05
22 *70:12 *218:34 0.000122711
23 *70:12 *218:76 0.000879013
24 *2357:D *2359:RESET_B 0.000153816
25 *2357:RESET_B *2359:RESET_B 0.0010481
*RES
1 *2321:Y *70:12 44.21 
2 *70:12 *2359:RESET_B 19.54 
*END

*D_NET *71 0.0143117
*CONN
*I *581:DIODE I *D sky130_fd_sc_hd__diode_2
*I *2360:RESET_B I *D sky130_fd_sc_hd__dfrtp_4
*I *2322:Y O *D sky130_fd_sc_hd__inv_2
*CAP
1 *581:DIODE 0
2 *2360:RESET_B 0.000593758
3 *2322:Y 0.00427686
4 *71:22 0.00487062
5 *2360:RESET_B *2363:RESET_B 0.000211601
6 *2360:RESET_B *179:104 8.64421e-05
7 *2360:RESET_B *179:118 1.53053e-05
8 *2360:RESET_B *197:18 3.25635e-05
9 *71:22 *334:DIODE 0
10 *71:22 *424:DIODE 9.30717e-05
11 *71:22 *529:DIODE 0.000229591
12 *71:22 *2224:A 0
13 *71:22 *80:26 1.49101e-05
14 *71:22 *123:20 0.00034255
15 *71:22 *132:28 0
16 *71:22 *171:120 0.000341393
17 *71:22 *172:10 5.89229e-05
18 *71:22 *179:104 0.000112545
19 *71:22 *180:20 0.000161731
20 *71:22 *180:58 9.09788e-06
21 *71:22 *184:54 0.00061984
22 *71:22 *186:36 0.000430091
23 *71:22 *195:72 0
24 *71:22 *196:44 0
25 *71:22 *218:34 0.000182872
26 *2369:D *2360:RESET_B 6.50572e-05
27 *2379:A *71:22 0.00154085
28 *21:22 *71:22 2.2016e-05
29 *30:18 *71:22 0
*RES
1 *2322:Y *71:22 34.7143 
2 *71:22 *2360:RESET_B 13.7425 
3 *71:22 *581:DIODE 1.6 
*END

*D_NET *72 0.00512227
*CONN
*I *2361:RESET_B I *D sky130_fd_sc_hd__dfrtp_4
*I *2324:Y O *D sky130_fd_sc_hd__inv_2
*CAP
1 *2361:RESET_B 0.00153397
2 *2324:Y 0.00153397
3 *2361:RESET_B *2361:CLK 0.000379135
4 *2361:RESET_B *131:44 1.56261e-05
5 *2361:RESET_B *148:14 0.000305595
6 *2361:RESET_B *176:82 7.50373e-05
7 *2361:RESET_B *178:95 0.000673473
8 *2361:RESET_B *195:6 0.000271562
9 *2361:RESET_B *195:50 0.00028612
10 *2361:RESET_B *195:120 4.77769e-05
*RES
1 *2324:Y *2361:RESET_B 30.0425 
*END

*D_NET *73 0.0179584
*CONN
*I *2362:RESET_B I *D sky130_fd_sc_hd__dfrtp_4
*I *585:DIODE I *D sky130_fd_sc_hd__diode_2
*I *2325:Y O *D sky130_fd_sc_hd__inv_2
*CAP
1 *2362:RESET_B 0.000187023
2 *585:DIODE 0
3 *2325:Y 0.000943734
4 *73:18 0.00123955
5 *73:16 0.00176002
6 *73:12 0.00165122
7 *2362:RESET_B *175:185 0.000181067
8 *2362:RESET_B *196:10 4.66826e-05
9 *73:12 *2325:A 5.72263e-05
10 *73:12 *2327:A 5.71366e-05
11 *73:12 *75:28 0.00119534
12 *73:12 *172:90 0.000157602
13 *73:12 *172:94 0.000148084
14 *73:12 *172:96 6.16204e-05
15 *73:12 *172:98 0.000399081
16 *73:12 *172:160 0.000253475
17 *73:12 *192:38 0.000827604
18 *73:16 *101:26 0.000126782
19 *73:16 *119:44 0.000576091
20 *73:16 *122:45 0.00188692
21 *73:16 *145:12 0.000340136
22 *73:16 *162:8 0
23 *73:18 *250:DIODE 0.000406535
24 *73:18 *2186:D_N 0.00015639
25 *73:18 *2245:B 0.000119866
26 *73:18 *2339:A 0.00015639
27 *73:18 *169:40 0.000233374
28 *73:18 *169:75 8.40269e-05
29 *73:18 *169:100 0.00152603
30 *73:18 *175:168 3.93162e-05
31 *73:18 *175:185 0.000158539
32 *73:18 *190:118 0.000483149
33 *73:18 *191:90 1.91597e-05
34 *73:18 *191:112 5.88334e-05
35 *73:18 *196:10 9.47267e-06
36 *73:18 *211:38 0.00134673
37 *48:16 *73:18 0.00106421
*RES
1 *2325:Y *73:12 28.665 
2 *73:12 *73:16 24.545 
3 *73:16 *73:18 33.915 
4 *73:18 *585:DIODE 1.6 
5 *73:18 *2362:RESET_B 3.5175 
*END

*D_NET *74 0.0118811
*CONN
*I *2363:RESET_B I *D sky130_fd_sc_hd__dfrtp_4
*I *588:DIODE I *D sky130_fd_sc_hd__diode_2
*I *2326:Y O *D sky130_fd_sc_hd__inv_2
*CAP
1 *2363:RESET_B 0.000385192
2 *588:DIODE 0
3 *2326:Y 0.000223523
4 *74:12 0.000385192
5 *74:10 0.00213597
6 *74:8 0.00235949
7 *2363:RESET_B *2360:CLK 4.58925e-05
8 *2363:RESET_B *174:28 3.54125e-05
9 *2363:RESET_B *197:18 0.000196162
10 *74:8 *2326:A 0.000196364
11 *74:8 *100:75 0.000311441
12 *74:10 *254:DIODE 9.78082e-05
13 *74:10 *2184:C 0.000136884
14 *74:10 *2187:A 6.28843e-05
15 *74:10 *2198:A 0
16 *74:10 *2290:A 1.50624e-05
17 *74:10 *2367:RESET_B 0.00149271
18 *74:10 *90:24 0.000465075
19 *74:10 *105:18 0.000126313
20 *74:10 *115:38 0
21 *74:10 *116:14 0
22 *74:10 *186:10 5.90378e-05
23 *74:10 *186:36 0.000270924
24 *74:10 *188:20 0.000374449
25 *74:10 *198:44 0
26 *74:10 *201:48 9.17274e-05
27 *74:10 *219:24 0
28 *2360:RESET_B *2363:RESET_B 0.000211601
29 *2369:D *2363:RESET_B 0.000269343
30 *2371:D *74:10 9.68772e-05
31 *18:10 *74:10 0.00137921
32 *30:18 *74:10 0.000456558
*RES
1 *2326:Y *74:8 8.535 
2 *74:8 *74:10 54.165 
3 *74:10 *74:12 2 
4 *74:12 *588:DIODE 1.6 
5 *74:12 *2363:RESET_B 11.4625 
*END

*D_NET *75 0.0182306
*CONN
*I *591:DIODE I *D sky130_fd_sc_hd__diode_2
*I *2364:RESET_B I *D sky130_fd_sc_hd__dfrtp_2
*I *2327:Y O *D sky130_fd_sc_hd__inv_2
*CAP
1 *591:DIODE 0
2 *2364:RESET_B 0.000295317
3 *2327:Y 0.00113767
4 *75:38 0.00322485
5 *75:28 0.0040672
6 *2364:RESET_B *530:DIODE 7.00322e-05
7 *2364:RESET_B *2323:A 5.12969e-06
8 *2364:RESET_B *2364:CLK 0.0002627
9 *2364:RESET_B *169:108 0.000345917
10 *2364:RESET_B *169:125 2.68464e-05
11 *2364:RESET_B *172:10 4.82863e-05
12 *75:28 *2218:B 0.00106555
13 *75:28 *106:34 0
14 *75:28 *116:72 7.23533e-05
15 *75:28 *120:18 0.00101286
16 *75:28 *149:30 0.000236869
17 *75:28 *172:94 8.23457e-05
18 *75:28 *172:96 4.66108e-05
19 *75:28 *181:30 1.01121e-05
20 *75:28 *184:54 0
21 *75:28 *192:38 0.00119578
22 *75:28 *195:90 0.000118081
23 *75:28 *209:22 5.8678e-05
24 *75:28 *209:39 0.00015518
25 *75:28 *211:78 9.30717e-05
26 *75:38 *2193:B 0
27 *75:38 *2245:B 8.27734e-05
28 *75:38 *2380:A 6.7718e-05
29 *75:38 *2381:A 2.85535e-05
30 *75:38 *117:24 0
31 *75:38 *136:50 0.00014068
32 *75:38 *138:28 0.000495779
33 *75:38 *153:22 0
34 *75:38 *180:58 1.11399e-05
35 *75:38 *196:16 0.000982713
36 *75:38 *218:52 0
37 *2341:RESET_B *75:38 2.44194e-05
38 *2357:D *75:28 0.000471007
39 *33:26 *75:38 0.000814211
40 *41:22 *2364:RESET_B 0.000102211
41 *41:22 *75:38 7.10593e-06
42 *42:26 *75:38 0.000175475
43 *73:12 *75:28 0.00119534
*RES
1 *2327:Y *75:28 48.4075 
2 *75:28 *75:38 20.3064 
3 *75:38 *2364:RESET_B 7.3425 
4 *75:38 *591:DIODE 1.6 
*END

*D_NET *76 0.00910814
*CONN
*I *2365:RESET_B I *D sky130_fd_sc_hd__dfrtp_4
*I *2328:Y O *D sky130_fd_sc_hd__inv_2
*CAP
1 *2365:RESET_B 0.00304154
2 *2328:Y 0.00304154
3 *2365:RESET_B *2264:B 0.000342169
4 *2365:RESET_B *2272:B 9.044e-05
5 *2365:RESET_B *2328:A 0.000114858
6 *2365:RESET_B *82:16 0.000214739
7 *2365:RESET_B *149:30 7.06865e-05
8 *2365:RESET_B *172:162 9.76407e-06
9 *2365:RESET_B *172:178 0.00019974
10 *2365:RESET_B *172:206 3.95409e-05
11 *2365:RESET_B *177:104 1.88466e-05
12 *2365:RESET_B *177:124 0.000178067
13 *2365:RESET_B *180:156 0.000155497
14 *2352:D *2365:RESET_B 1.34594e-05
15 *2352:RESET_B *2365:RESET_B 0.00157724
*RES
1 *2328:Y *2365:RESET_B 45.41 
*END

*D_NET *77 0.00843398
*CONN
*I *2366:RESET_B I *D sky130_fd_sc_hd__dfrtp_2
*I *2329:Y O *D sky130_fd_sc_hd__inv_2
*CAP
1 *2366:RESET_B 0.00124121
2 *2329:Y 0.00124121
3 *2366:RESET_B *436:DIODE 0.000110673
4 *2366:RESET_B *2267:A 0.00034245
5 *2366:RESET_B *110:10 0.000987215
6 *2366:RESET_B *170:96 0.00256407
7 *2366:RESET_B *175:185 9.05377e-05
8 *2366:RESET_B *175:242 8.30174e-05
9 *2366:RESET_B *185:30 1.23244e-05
10 *2366:RESET_B *186:117 0.000221754
11 *2366:RESET_B *218:58 0.00092978
12 *28:28 *2366:RESET_B 0.000609733
*RES
1 *2329:Y *2366:RESET_B 47.33 
*END

*D_NET *78 0.00644513
*CONN
*I *2367:RESET_B I *D sky130_fd_sc_hd__dfrtp_2
*I *2330:Y O *D sky130_fd_sc_hd__inv_2
*CAP
1 *2367:RESET_B 0.000862748
2 *2330:Y 0.000862748
3 *2367:RESET_B *2290:A 0.000337074
4 *2367:RESET_B *90:24 0.000120926
5 *2367:RESET_B *105:18 0.000859362
6 *2367:RESET_B *219:24 0.000198945
7 *2367:D *2367:RESET_B 0.000484651
8 *35:20 *2367:RESET_B 0.00122596
9 *74:10 *2367:RESET_B 0.00149271
*RES
1 *2330:Y *2367:RESET_B 34.9925 
*END

*D_NET *79 0.000445052
*CONN
*I *2368:RESET_B I *D sky130_fd_sc_hd__dfrtp_1
*I *2331:Y O *D sky130_fd_sc_hd__inv_2
*CAP
1 *2368:RESET_B 0.000130089
2 *2331:Y 0.000130089
3 *2368:RESET_B *94:20 9.35189e-05
4 *2368:RESET_B *199:92 9.13537e-05
*RES
1 *2331:Y *2368:RESET_B 8.1575 
*END

*D_NET *80 0.0136852
*CONN
*I *2369:RESET_B I *D sky130_fd_sc_hd__dfrtp_4
*I *599:DIODE I *D sky130_fd_sc_hd__diode_2
*I *2332:Y O *D sky130_fd_sc_hd__inv_2
*CAP
1 *2369:RESET_B 0.00027072
2 *599:DIODE 0.000152596
3 *2332:Y 0.00131197
4 *80:26 0.00187733
5 *80:16 0.00276598
6 *599:DIODE *170:34 0
7 *599:DIODE *170:36 0
8 *599:DIODE *170:42 0
9 *2369:RESET_B *2369:CLK 4.90291e-05
10 *2369:RESET_B *170:76 8.98797e-05
11 *80:16 *2223:B 0.000119866
12 *80:16 *113:22 0.000525011
13 *80:16 *119:24 0.000167863
14 *80:16 *119:26 9.47017e-05
15 *80:16 *159:18 9.83921e-06
16 *80:16 *172:46 8.07081e-05
17 *80:16 *175:33 0
18 *80:16 *202:62 0.000561444
19 *80:16 *208:36 0.000622352
20 *80:26 *102:8 0.000826782
21 *80:26 *136:50 0.000201584
22 *80:26 *151:69 0.000379682
23 *80:26 *172:10 0.00053718
24 *80:26 *172:21 0.000140431
25 *80:26 *172:46 0.000666078
26 *80:26 *175:86 0.000259682
27 *80:26 *175:90 0.000492905
28 *80:26 *175:140 0.000344347
29 *80:26 *175:153 0.000162355
30 *80:26 *175:168 0.000743979
31 *80:26 *180:20 0
32 *2343:RESET_B *599:DIODE 6.12338e-06
33 *2343:RESET_B *2369:RESET_B 1.58529e-05
34 *2343:RESET_B *80:26 0.000107465
35 *2350:RESET_B *599:DIODE 8.21627e-05
36 *34:8 *599:DIODE 0
37 *39:28 *80:16 4.43871e-06
38 *71:22 *80:26 1.49101e-05
*RES
1 *2332:Y *80:16 34.525 
2 *80:16 *80:26 43.78 
3 *80:26 *599:DIODE 6 
4 *80:26 *2369:RESET_B 5.9675 
*END

*D_NET *81 0.00855261
*CONN
*I *2370:RESET_B I *D sky130_fd_sc_hd__dfrtp_4
*I *2333:Y O *D sky130_fd_sc_hd__inv_2
*CAP
1 *2370:RESET_B 0
2 *2333:Y 0.00226933
3 *81:14 0.00226933
4 *81:14 *540:DIODE 0.000172834
5 *81:14 *2179:A 8.66976e-06
6 *81:14 *2182:B 0.000746977
7 *81:14 *2207:B 0.000161529
8 *81:14 *2264:B 0.00158831
9 *81:14 *111:10 0.00018867
10 *81:14 *192:126 0
11 *81:14 *213:152 2.67022e-05
12 *58:18 *81:14 0.00112026
*RES
1 *2333:Y *81:14 49.29 
2 *81:14 *2370:RESET_B 2 
*END

*D_NET *82 0.0152331
*CONN
*I *2371:RESET_B I *D sky130_fd_sc_hd__dfrtp_2
*I *603:DIODE I *D sky130_fd_sc_hd__diode_2
*I *2334:Y O *D sky130_fd_sc_hd__inv_2
*CAP
1 *2371:RESET_B 5.69844e-05
2 *603:DIODE 4.4325e-05
3 *2334:Y 0.0008166
4 *82:18 0.00112218
5 *82:16 0.00183747
6 *603:DIODE *122:43 4.75977e-05
7 *2371:RESET_B *174:18 0.000103042
8 *2371:RESET_B *206:14 0.000113537
9 *2371:RESET_B *206:46 8.41307e-05
10 *82:16 *2247:A 0.00122043
11 *82:16 *96:46 0.00198849
12 *82:16 *152:30 0.000143171
13 *82:16 *169:241 8.53113e-06
14 *82:16 *170:155 4.66108e-05
15 *82:16 *172:178 0.000217271
16 *82:16 *201:67 0.000290396
17 *82:18 *101:26 0.000578667
18 *82:18 *106:34 0.000303908
19 *82:18 *122:43 2.31223e-05
20 *82:18 *122:45 0.00320729
21 *82:18 *178:99 0.000663137
22 *82:18 *218:34 0.000120406
23 *82:18 *218:76 0.00190935
24 *2365:RESET_B *82:16 0.000214739
25 *70:12 *603:DIODE 4.75977e-05
26 *70:12 *82:18 2.41454e-05
*RES
1 *2334:Y *82:16 35.425 
2 *82:16 *82:18 39.375 
3 *82:18 *603:DIODE 4.725 
4 *82:18 *2371:RESET_B 3.7775 
*END

*D_NET *83 0.00879252
*CONN
*I *2372:RESET_B I *D sky130_fd_sc_hd__dfrtp_1
*I *2335:Y O *D sky130_fd_sc_hd__inv_2
*CAP
1 *2372:RESET_B 0.00149474
2 *2335:Y 0.00149474
3 *2372:RESET_B *390:DIODE 4.82863e-05
4 *2372:RESET_B *2335:A 0.000200615
5 *2372:RESET_B *118:24 0.00144145
6 *2372:RESET_B *122:45 0.000667994
7 *2372:RESET_B *122:73 0.000660339
8 *2372:RESET_B *169:206 0.000356946
9 *2372:RESET_B *171:230 0.00037426
10 *2372:RESET_B *171:238 0.000159156
11 *2372:RESET_B *178:99 0.00115307
12 *2372:RESET_B *207:6 3.1968e-05
13 *2358:RESET_B *2372:RESET_B 0.000708953
*RES
1 *2335:Y *2372:RESET_B 47.2325 
*END

*D_NET *84 0.00770368
*CONN
*I *2373:RESET_B I *D sky130_fd_sc_hd__dfrtp_4
*I *2336:Y O *D sky130_fd_sc_hd__inv_2
*CAP
1 *2373:RESET_B 0.00160299
2 *2336:Y 0.00160299
3 *2373:RESET_B *2283:A 2.20403e-05
4 *2373:RESET_B *2336:A 0.000110783
5 *2373:RESET_B *169:160 0.00132714
6 *2373:RESET_B *171:135 0.000144139
7 *2373:RESET_B *199:116 0.000979956
8 *2373:RESET_B *200:14 0.00115183
9 *2373:RESET_B *203:50 0.000311563
10 *30:18 *2373:RESET_B 0.000333359
11 *31:24 *2373:RESET_B 0.0001169
*RES
1 *2336:Y *2373:RESET_B 46.94 
*END

*D_NET *85 0.00655117
*CONN
*I *2374:RESET_B I *D sky130_fd_sc_hd__dfrtp_4
*I *2337:Y O *D sky130_fd_sc_hd__inv_2
*CAP
1 *2374:RESET_B 0.00158424
2 *2337:Y 0.00158424
3 *2374:RESET_B *2289:B 0.000385564
4 *2374:RESET_B *2290:A 0.000117616
5 *2374:RESET_B *2337:A 0.000111909
6 *2374:RESET_B *143:24 8.67751e-05
7 *2374:RESET_B *156:91 0.000623564
8 *2374:RESET_B *171:116 4.20673e-05
9 *2374:RESET_B *178:10 2.02316e-05
10 *2374:RESET_B *178:16 0.000299846
11 *2374:RESET_B *178:34 4.66108e-05
12 *2374:RESET_B *199:142 0
13 *2374:RESET_B *220:38 0.00118398
14 *2374:RESET_B *220:42 5.61262e-05
15 *2374:RESET_B *220:53 0.0004084
*RES
1 *2337:Y *2374:RESET_B 38.0975 
*END

*D_NET *86 0.00143496
*CONN
*I *2375:RESET_B I *D sky130_fd_sc_hd__dfrtp_4
*I *2338:Y O *D sky130_fd_sc_hd__inv_2
*CAP
1 *2375:RESET_B 0.000433392
2 *2338:Y 0.000433392
3 *2375:RESET_B *608:DIODE 0.000152328
4 *2375:RESET_B *2338:A 8.65961e-05
5 *2375:RESET_B *2375:CLK 8.65905e-05
6 *2348:D *2375:RESET_B 0.000136156
7 *2375:D *2375:RESET_B 0.000106504
*RES
1 *2338:Y *2375:RESET_B 10.1725 
*END

*D_NET *87 0.0073009
*CONN
*I *2376:RESET_B I *D sky130_fd_sc_hd__dfrtp_4
*I *2339:Y O *D sky130_fd_sc_hd__inv_2
*CAP
1 *2376:RESET_B 0.00150933
2 *2339:Y 0.00150933
3 *2376:RESET_B *2200:B 0.000704849
4 *2376:RESET_B *96:46 3.13381e-05
5 *2376:RESET_B *108:24 0.00048581
6 *2376:RESET_B *172:46 0.000160654
7 *2376:RESET_B *172:50 9.06623e-05
8 *2376:RESET_B *174:126 0.000286635
9 *2376:RESET_B *182:14 2.54047e-05
10 *2376:RESET_B *182:32 0.000629263
11 *2376:RESET_B *182:80 0.000214759
12 *2376:RESET_B *196:93 8.54281e-05
13 *2376:RESET_B *221:14 2.31025e-05
14 *2376:D *2376:RESET_B 0.0010882
15 *56:20 *2376:RESET_B 0.000456133
*RES
1 *2339:Y *2376:RESET_B 40.8725 
*END

*D_NET *88 0.0104665
*CONN
*I *2377:RESET_B I *D sky130_fd_sc_hd__dfrtp_4
*I *2340:Y O *D sky130_fd_sc_hd__inv_2
*CAP
1 *2377:RESET_B 0.000448101
2 *2340:Y 0.00235998
3 *88:20 0.00280808
4 *2377:RESET_B *178:8 0.000124986
5 *2377:RESET_B *189:30 5.73726e-05
6 *2377:RESET_B *213:24 8.73389e-06
7 *2377:RESET_B *214:22 0.00117487
8 *88:20 *2340:A 0.000160314
9 *88:20 *119:44 0.000250536
10 *88:20 *122:43 0.000192485
11 *88:20 *122:45 3.18891e-05
12 *88:20 *131:18 0.000201995
13 *88:20 *134:8 0.000115888
14 *88:20 *134:10 0.000274595
15 *88:20 *134:16 0.000180925
16 *88:20 *167:38 0.00104163
17 *88:20 *169:40 0.000182071
18 *88:20 *169:176 2.75252e-05
19 *88:20 *201:22 0.000668947
20 *88:20 *218:52 0.000155601
*RES
1 *2340:Y *88:20 47.4 
2 *88:20 *2377:RESET_B 11.0925 
*END

*D_NET *89 0.00754709
*CONN
*I *2377:D I *D sky130_fd_sc_hd__dfrtp_4
*I *2189:Y O *D sky130_fd_sc_hd__xnor2_1
*CAP
1 *2377:D 0.00104414
2 *2189:Y 0.00104414
3 *2377:D *2223:B 0.000589963
4 *2377:D *2249:D 0.000323087
5 *2377:D *95:24 0
6 *2377:D *107:12 1.7902e-05
7 *2377:D *141:8 0.000164949
8 *2377:D *141:58 0.00049127
9 *2377:D *173:14 2.05641e-05
10 *2377:D *173:18 0.000160724
11 *2377:D *174:173 0.000475197
12 *2377:D *178:8 2.69153e-05
13 *2377:D *190:16 0.000907766
14 *2377:D *214:22 4.66108e-05
15 *2349:D *2377:D 0.000926393
16 *2368:D *2377:D 0.000275982
17 *39:28 *2377:D 0.000964856
18 *51:16 *2377:D 6.66273e-05
*RES
1 *2189:Y *2377:D 41.415 
*END

*D_NET *90 0.0277997
*CONN
*I *2182:A I *D sky130_fd_sc_hd__or4_2
*I *238:DIODE I *D sky130_fd_sc_hd__diode_2
*I *2178:X O *D sky130_fd_sc_hd__or4b_2
*CAP
1 *2182:A 7.02732e-05
2 *238:DIODE 9.04691e-06
3 *2178:X 0.0106073
4 *90:24 0.0106866
5 *238:DIODE *141:114 6.15576e-06
6 *238:DIODE *184:114 1.88602e-05
7 *2182:A *2182:D 0.000191343
8 *2182:A *130:20 0.000191343
9 *2182:A *141:114 9.14098e-06
10 *2182:A *184:114 3.72899e-05
11 *90:24 *2178:A 7.69525e-05
12 *90:24 *2198:A 0.00022143
13 *90:24 *2236:A 8.26725e-05
14 *90:24 *101:26 0.00173734
15 *90:24 *105:18 0.000113983
16 *90:24 *120:18 0.000112534
17 *90:24 *158:24 0
18 *90:24 *172:88 0.000150029
19 *90:24 *174:92 0.000105649
20 *90:24 *176:82 0.000158482
21 *90:24 *181:10 0.000356574
22 *90:24 *181:12 0.000141724
23 *90:24 *185:84 0.00073005
24 *90:24 *186:36 0.000138309
25 *90:24 *188:20 0.000604434
26 *90:24 *189:70 0.000177148
27 *2367:RESET_B *90:24 0.000120926
28 *2369:D *90:24 0.000347324
29 *30:18 *90:24 0.000131706
30 *67:26 *90:24 0
31 *74:10 *90:24 0.000465075
*RES
1 *2178:X *90:24 32.2296 
2 *90:24 *238:DIODE 3.8325 
3 *90:24 *2182:A 5.9175 
*END

*D_NET *91 0.00692938
*CONN
*I *2182:B I *D sky130_fd_sc_hd__or4_2
*I *2179:Y O *D sky130_fd_sc_hd__nand4_1
*CAP
1 *2182:B 0.0014782
2 *2179:Y 0.0014782
3 *2182:B *356:DIODE 4.66108e-05
4 *2182:B *2179:A 6.73751e-05
5 *2182:B *2182:C 6.43186e-05
6 *2182:B *2208:A 0
7 *2182:B *2232:A 0.000378325
8 *2182:B *104:16 0.00141464
9 *2182:B *109:12 0.000362209
10 *2182:B *111:10 0.000331429
11 *2182:B *129:41 0.000366806
12 *2182:B *130:20 0.000194295
13 *81:14 *2182:B 0.000746977
*RES
1 *2179:Y *2182:B 45.495 
*END

*D_NET *92 0.00849294
*CONN
*I *2182:C I *D sky130_fd_sc_hd__or4_2
*I *2180:X O *D sky130_fd_sc_hd__or4_1
*CAP
1 *2182:C 0.00141128
2 *2180:X 0.00141128
3 *2182:C *2182:D 2.69217e-05
4 *2182:C *2232:A 4.77769e-05
5 *2182:C *2299:A2 3.46704e-05
6 *2182:C *100:127 0
7 *2182:C *109:12 3.28667e-05
8 *2182:C *119:87 0
9 *2182:C *129:22 5.09877e-05
10 *2182:C *166:66 3.3625e-05
11 *2182:C *166:90 0.000190352
12 *2182:C *182:26 8.8771e-05
13 *2182:C *191:82 4.28112e-06
14 *2182:C *196:93 0.000626852
15 *2182:C *196:117 0.00144105
16 *2182:C *203:74 0.000662317
17 *2182:C *203:96 0.00149975
18 *2182:C *203:120 0.000865834
19 *2182:B *2182:C 6.43186e-05
*RES
1 *2180:X *2182:C 49.545 
*END

*D_NET *93 0.00634128
*CONN
*I *2182:D I *D sky130_fd_sc_hd__or4_2
*I *2181:X O *D sky130_fd_sc_hd__or4b_1
*CAP
1 *2182:D 0.00138874
2 *2181:X 0.00138874
3 *2182:D *2217:A 0
4 *2182:D *109:12 0.00148601
5 *2182:D *130:20 0.000464555
6 *2182:D *144:37 0
7 *2182:D *172:188 0.00037161
8 *2182:D *197:66 0.000458639
9 *2182:D *210:12 0
10 *2182:D *212:104 0.000411095
11 *2182:A *2182:D 0.000191343
12 *2182:C *2182:D 2.69217e-05
13 *19:10 *2182:D 0.000153624
*RES
1 *2181:X *2182:D 41.355 
*END

*D_NET *94 0.0231863
*CONN
*I *2188:A I *D sky130_fd_sc_hd__or4_4
*I *326:DIODE I *D sky130_fd_sc_hd__diode_2
*I *2220:A I *D sky130_fd_sc_hd__or3_4
*I *256:DIODE I *D sky130_fd_sc_hd__diode_2
*I *2182:X O *D sky130_fd_sc_hd__or4_2
*CAP
1 *2188:A 0
2 *326:DIODE 0
3 *2220:A 0.000116785
4 *256:DIODE 3.69588e-05
5 *2182:X 0.000839203
6 *94:43 0.000747262
7 *94:41 0.000797275
8 *94:26 0.00101706
9 *94:20 0.00285968
10 *94:16 0.00288558
11 *256:DIODE *2220:C 4.66108e-05
12 *2220:A *2220:B 0.000197726
13 *2220:A *2220:C 4.80814e-05
14 *2220:A *218:34 4.82919e-05
15 *94:16 *130:20 0.000426813
16 *94:16 *176:63 1.56261e-05
17 *94:20 *2346:CLK 2.80345e-05
18 *94:20 *95:24 0
19 *94:20 *117:24 3.96183e-05
20 *94:20 *171:238 2.36679e-05
21 *94:20 *171:252 0
22 *94:20 *172:206 9.2951e-05
23 *94:20 *172:208 6.84082e-05
24 *94:20 *172:214 0.000496113
25 *94:20 *176:30 0
26 *94:20 *176:52 1.10631e-05
27 *94:20 *184:20 1.37515e-05
28 *94:20 *192:61 0
29 *94:20 *202:24 0.000744832
30 *94:26 *2220:C 3.57349e-05
31 *94:26 *2278:A2 3.59311e-05
32 *94:26 *95:24 0
33 *94:26 *159:24 4.66826e-05
34 *94:26 *171:86 0.0013753
35 *94:26 *171:92 0.000502305
36 *94:41 *2188:B 0.000261321
37 *94:41 *2188:C 0.000506103
38 *94:41 *2220:C 2.05056e-05
39 *94:41 *2278:A2 0.0001249
40 *94:41 *121:12 2.82887e-05
41 *94:43 *2188:B 4.99619e-05
42 *94:43 *2188:C 0.000103671
43 *94:43 *2188:D 0.000455909
44 *94:43 *2220:B 0.00159962
45 *94:43 *2220:C 0.000296308
46 *94:43 *100:14 0.000779752
47 *94:43 *218:34 0.00194552
48 *2348:RESET_B *94:16 5.05066e-06
49 *2353:RESET_B *94:20 0.000471746
50 *2368:RESET_B *94:20 9.35189e-05
51 *21:24 *94:20 0.000731561
52 *21:24 *94:26 0.00192186
53 *21:24 *94:41 0
54 *21:36 *94:16 0
55 *21:36 *94:20 0
56 *55:14 *94:41 0
57 *66:32 *94:16 0.000122594
58 *66:32 *94:20 7.07429e-05
*RES
1 *2182:X *94:16 15.795 
2 *94:16 *94:20 41.4825 
3 *94:20 *94:26 27.3575 
4 *94:26 *256:DIODE 2.05 
5 *94:26 *94:41 9.46 
6 *94:41 *94:43 28.05 
7 *94:43 *2220:A 4.48 
8 *94:43 *326:DIODE 1.6 
9 *94:41 *2188:A 1.6 
*END

*D_NET *95 0.0173015
*CONN
*I *2185:B I *D sky130_fd_sc_hd__or3_1
*I *246:DIODE I *D sky130_fd_sc_hd__diode_2
*I *324:DIODE I *D sky130_fd_sc_hd__diode_2
*I *2219:C I *D sky130_fd_sc_hd__or4_1
*I *2183:X O *D sky130_fd_sc_hd__or4_2
*CAP
1 *2185:B 0.000182705
2 *246:DIODE 0
3 *324:DIODE 7.42247e-05
4 *2219:C 0
5 *2183:X 0
6 *95:46 0.00161321
7 *95:24 0.00193167
8 *95:18 0.00279834
9 *95:4 0.0023714
10 *324:DIODE *323:DIODE 8.62561e-05
11 *324:DIODE *2219:D 1.32026e-05
12 *2185:B *2185:A 0.000164874
13 *2185:B *203:120 0.000150653
14 *95:18 *564:DIODE 8.83817e-05
15 *95:18 *2183:A 6.01704e-05
16 *95:18 *2183:B 8.33066e-06
17 *95:18 *2346:CLK 0
18 *95:18 *163:24 0.000158297
19 *95:18 *171:238 0
20 *95:18 *171:252 0.000222267
21 *95:18 *172:188 0.000218049
22 *95:18 *176:30 0.000681324
23 *95:18 *184:114 6.9748e-05
24 *95:18 *206:88 0.0018244
25 *95:24 *322:DIODE 0.000135962
26 *95:24 *323:DIODE 4.02502e-05
27 *95:24 *2215:A1 0
28 *95:24 *2215:A2 0
29 *95:24 *2219:D 2.739e-05
30 *95:24 *96:20 0.000122189
31 *95:24 *108:24 9.84247e-05
32 *95:24 *117:24 0
33 *95:24 *121:12 0.000196048
34 *95:24 *146:20 0.000615853
35 *95:24 *171:86 0
36 *95:24 *172:62 4.31189e-05
37 *95:24 *190:16 0
38 *95:24 *192:61 0.000325841
39 *95:24 *206:88 2.17348e-05
40 *95:24 *212:32 4.21518e-05
41 *95:46 *2183:A 4.41506e-05
42 *95:46 *134:175 0.000675891
43 *95:46 *141:114 0
44 *95:46 *184:114 0.000507776
45 *95:46 *203:120 0.000566108
46 *2346:D *95:18 4.4908e-05
47 *2351:RESET_B *95:18 0.000132288
48 *2377:D *95:24 0
49 *21:36 *95:18 0.000213769
50 *51:16 *95:24 0.000730188
51 *94:20 *95:24 0
52 *94:26 *95:24 0
*RES
1 *2183:X *95:4 1.6 
2 *95:4 *95:18 34.1775 
3 *95:18 *95:24 37.7075 
4 *95:24 *2219:C 1.6 
5 *95:24 *324:DIODE 3.085 
6 *95:4 *95:46 28.255 
7 *95:46 *246:DIODE 1.6 
8 *95:46 *2185:B 5.185 
*END

*D_NET *96 0.0211744
*CONN
*I *2185:C I *D sky130_fd_sc_hd__or3_1
*I *247:DIODE I *D sky130_fd_sc_hd__diode_2
*I *325:DIODE I *D sky130_fd_sc_hd__diode_2
*I *2219:D I *D sky130_fd_sc_hd__or4_1
*I *2184:X O *D sky130_fd_sc_hd__or3_2
*CAP
1 *2185:C 0.000170329
2 *247:DIODE 0
3 *325:DIODE 0
4 *2219:D 0.000316372
5 *2184:X 0.000644473
6 *96:46 0.00205433
7 *96:20 0.00124654
8 *96:14 0.00345864
9 *2185:C *2185:A 4.99619e-05
10 *2185:C *97:24 5.53249e-06
11 *2185:C *169:254 4.03082e-05
12 *2219:D *322:DIODE 2.83875e-05
13 *2219:D *210:101 2.0851e-06
14 *2219:D *212:32 1.61279e-05
15 *96:14 *242:DIODE 8.40269e-05
16 *96:14 *2234:B 2.97593e-05
17 *96:14 *2330:A 8.78544e-05
18 *96:14 *130:52 0.0010884
19 *96:14 *202:44 0.00013837
20 *96:14 *204:112 0.00138017
21 *96:20 *322:DIODE 0.000122189
22 *96:20 *121:12 0.000181851
23 *96:20 *159:40 0.000670202
24 *96:20 *166:10 0.000166167
25 *96:20 *166:66 0.000140955
26 *96:20 *169:44 0.00013726
27 *96:20 *174:16 0.000322784
28 *96:20 *174:126 0.000364361
29 *96:20 *182:32 0.000120763
30 *96:20 *209:142 0.000184963
31 *96:46 *97:24 8.1718e-05
32 *96:46 *149:30 0.000272471
33 *96:46 *152:30 0.000104857
34 *96:46 *169:241 3.23391e-05
35 *96:46 *169:254 0.00015445
36 *96:46 *171:211 0
37 *96:46 *174:126 0.000155234
38 *96:46 *201:67 0.000730516
39 *96:46 *209:142 0.000212908
40 *96:46 *210:12 0.00043267
41 *96:46 *210:58 0.000326017
42 *324:DIODE *2219:D 1.32026e-05
43 *2376:RESET_B *96:46 3.13381e-05
44 *51:16 *2219:D 1.5085e-05
45 *56:20 *96:46 0.0032204
46 *82:16 *96:46 0.00198849
47 *95:24 *2219:D 2.739e-05
48 *95:24 *96:20 0.000122189
*RES
1 *2184:X *96:14 21.69 
2 *96:14 *96:20 25.055 
3 *96:20 *2219:D 9.305 
4 *96:20 *325:DIODE 1.6 
5 *96:14 *96:46 58.5 
6 *96:46 *247:DIODE 3.6 
7 *96:46 *2185:C 6.645 
*END

*D_NET *97 0.0201647
*CONN
*I *257:DIODE I *D sky130_fd_sc_hd__diode_2
*I *2188:B I *D sky130_fd_sc_hd__or4_4
*I *2185:X O *D sky130_fd_sc_hd__or3_1
*CAP
1 *257:DIODE 0
2 *2188:B 0.000173412
3 *2185:X 0.00735612
4 *97:24 0.00752953
5 *2188:B *100:14 8.8266e-05
6 *2188:B *197:20 8.89169e-05
7 *2188:B *220:59 2.96318e-05
8 *97:24 *2217:A 0.000134139
9 *97:24 *101:26 0
10 *97:24 *136:50 7.87237e-05
11 *97:24 *138:28 0.000221949
12 *97:24 *144:37 0.000109379
13 *97:24 *149:30 0.00116169
14 *97:24 *171:66 0.000109539
15 *97:24 *171:230 0.000157807
16 *97:24 *197:20 0.000150164
17 *97:24 *197:44 0.000162227
18 *97:24 *198:68 0.000132553
19 *97:24 *210:90 0.000522308
20 *97:24 *220:59 4.47504e-06
21 *2185:C *97:24 5.53249e-06
22 *2379:A *97:24 0.00116894
23 *30:18 *97:24 0
24 *55:14 *97:24 0.000129129
25 *55:20 *97:24 0.000257314
26 *94:41 *2188:B 0.000261321
27 *94:43 *2188:B 4.99619e-05
28 *96:46 *97:24 8.1718e-05
*RES
1 *2185:X *97:24 21.4979 
2 *97:24 *2188:B 7.59 
3 *97:24 *257:DIODE 3.6 
*END

*D_NET *98 0.00639589
*CONN
*I *2188:C I *D sky130_fd_sc_hd__or4_4
*I *2186:X O *D sky130_fd_sc_hd__or4b_1
*CAP
1 *2188:C 0.00127199
2 *2186:X 0.00127199
3 *2188:C *2186:A 3.83194e-05
4 *2188:C *2220:C 0.000548769
5 *2188:C *121:12 0.00044167
6 *2188:C *123:20 0.000726906
7 *2188:C *167:28 0.000219129
8 *2188:C *209:142 0.000814843
9 *55:14 *2188:C 0.000295911
10 *60:14 *2188:C 0.000156598
11 *94:41 *2188:C 0.000506103
12 *94:43 *2188:C 0.000103671
*RES
1 *2186:X *2188:C 39.3787 
*END

*D_NET *99 0.0117041
*CONN
*I *2218:B I *D sky130_fd_sc_hd__or4b_1
*I *2188:D I *D sky130_fd_sc_hd__or4_4
*I *2187:X O *D sky130_fd_sc_hd__or4b_2
*CAP
1 *2218:B 0.00125122
2 *2188:D 0.000129498
3 *2187:X 0.000764744
4 *99:8 0.00214546
5 *2188:D *2220:C 0.000453717
6 *2188:D *122:37 0.000116158
7 *2188:D *182:46 0.000114492
8 *2218:B *122:37 0.000540075
9 *2218:B *149:30 0.000288113
10 *2218:B *172:62 8.23457e-05
11 *2218:B *181:30 0.00171919
12 *2218:B *182:46 0.000245331
13 *2218:B *201:67 8.40213e-05
14 *2218:B *209:22 0.000550506
15 *99:8 *254:DIODE 4.82919e-05
16 *99:8 *2187:B 7.67415e-06
17 *99:8 *2187:D_N 2.01565e-05
18 *99:8 *2290:A 0.000972345
19 *2357:D *2218:B 0.000564067
20 *70:12 *2218:B 8.52522e-05
21 *75:28 *2218:B 0.00106555
22 *94:43 *2188:D 0.000455909
*RES
1 *2187:X *99:8 13.71 
2 *99:8 *2188:D 9.225 
3 *99:8 *2218:B 47.365 
*END

*D_NET *100 0.0373063
*CONN
*I *419:DIODE I *D sky130_fd_sc_hd__diode_2
*I *2208:A I *D sky130_fd_sc_hd__and3_1
*I *296:DIODE I *D sky130_fd_sc_hd__diode_2
*I *2190:B I *D sky130_fd_sc_hd__and2b_1
*I *261:DIODE I *D sky130_fd_sc_hd__diode_2
*I *2189:B I *D sky130_fd_sc_hd__xnor2_1
*I *259:DIODE I *D sky130_fd_sc_hd__diode_2
*I *312:DIODE I *D sky130_fd_sc_hd__diode_2
*I *2214:B1 I *D sky130_fd_sc_hd__o21ai_1
*I *2259:A I *D sky130_fd_sc_hd__and3_1
*I *2251:A I *D sky130_fd_sc_hd__and3_1
*I *400:DIODE I *D sky130_fd_sc_hd__diode_2
*I *2188:X O *D sky130_fd_sc_hd__or4_4
*CAP
1 *419:DIODE 0
2 *2208:A 0.000388488
3 *296:DIODE 0
4 *2190:B 0.000100663
5 *261:DIODE 0
6 *2189:B 0
7 *259:DIODE 0
8 *312:DIODE 0
9 *2214:B1 0
10 *2259:A 0.000197144
11 *2251:A 0.000169814
12 *400:DIODE 3.54892e-05
13 *2188:X 0.00225123
14 *100:149 0.00229739
15 *100:134 0.0020221
16 *100:127 0.00167593
17 *100:108 0.00174013
18 *100:99 0.00172617
19 *100:84 0.00173662
20 *100:75 0.00112173
21 *100:50 0.00126407
22 *100:46 0.00068098
23 *100:16 0.000316859
24 *100:14 0.0030114
25 *400:DIODE *143:12 4.75959e-05
26 *2208:A *113:10 0
27 *2251:A *2251:B 6.55777e-05
28 *2251:A *143:12 0.000256709
29 *2251:A *147:26 2.34331e-05
30 *2259:A *134:224 1.35683e-05
31 *2259:A *147:18 0.00013229
32 *2259:A *147:26 5.90459e-05
33 *100:14 *2220:B 0.000979458
34 *100:14 *131:18 0.000281785
35 *100:14 *143:12 0.000378519
36 *100:14 *187:36 0.000118743
37 *100:16 *143:12 0.000155344
38 *100:46 *2259:B 0.000150036
39 *100:46 *125:26 0.00192062
40 *100:46 *127:26 0.000185986
41 *100:46 *136:16 0.000924228
42 *100:46 *147:26 5.49297e-05
43 *100:46 *179:142 0.000142843
44 *100:46 *179:170 0.000183024
45 *100:46 *188:42 0.000532132
46 *100:50 *125:24 6.90254e-05
47 *100:50 *134:224 3.54721e-05
48 *100:75 *2214:A1 3.41208e-05
49 *100:75 *2214:A2 0.000176054
50 *100:75 *2326:A 1.34594e-05
51 *100:75 *116:84 0.000368434
52 *100:75 *116:98 0.000207247
53 *100:75 *117:24 5.83121e-06
54 *100:75 *125:24 0.001477
55 *100:75 *127:26 0.000266137
56 *100:75 *134:224 1.0397e-05
57 *100:75 *147:10 0.00015886
58 *100:75 *147:18 9.42924e-05
59 *100:75 *192:26 0.000659953
60 *100:75 *192:140 0.00042001
61 *100:84 *2214:A1 1.95405e-05
62 *100:84 *117:24 9.69304e-05
63 *100:84 *213:103 0.00010837
64 *100:84 *213:118 0.000148893
65 *100:99 *557:DIODE 7.32575e-05
66 *100:99 *2346:CLK 0.000122808
67 *100:99 *117:24 0.000350012
68 *100:99 *210:90 0.000129433
69 *100:99 *213:118 4.77807e-05
70 *100:108 *557:DIODE 0.000159697
71 *100:108 *2189:A 1.52352e-05
72 *100:127 *557:DIODE 0.000126454
73 *100:127 *2189:A 2.68464e-05
74 *100:127 *119:87 0.00121781
75 *100:127 *129:12 5.90162e-05
76 *100:127 *129:22 0
77 *100:127 *130:20 5.037e-05
78 *100:127 *134:175 0.000186554
79 *100:127 *208:14 0.00165337
80 *100:149 *260:DIODE 0.000122818
81 *2182:B *2208:A 0
82 *2182:C *100:127 0
83 *2188:B *100:14 8.8266e-05
84 *2346:D *100:99 5.44505e-05
85 *2346:RESET_B *100:99 1.87968e-05
86 *26:12 *100:14 0
87 *74:8 *100:75 0.000311441
88 *94:43 *100:14 0.000779752
*RES
1 *2188:X *100:14 37.91 
2 *100:14 *100:16 1.485 
3 *100:16 *400:DIODE 2.05 
4 *100:16 *2251:A 9.785 
5 *100:14 *100:46 28.96 
6 *100:46 *100:50 2.87 
7 *100:50 *2259:A 6.135 
8 *100:50 *100:75 33.32 
9 *100:75 *2214:B1 1.6 
10 *100:75 *100:84 2.88 
11 *100:84 *312:DIODE 1.6 
12 *100:84 *100:99 20.7 
13 *100:99 *259:DIODE 1.6 
14 *100:99 *100:108 1.845 
15 *100:108 *2189:B 1.6 
16 *100:108 *100:127 38.59 
17 *100:127 *261:DIODE 1.6 
18 *100:127 *100:134 0.36 
19 *100:134 *2190:B 3.61 
20 *100:134 *100:149 21.27 
21 *100:149 *296:DIODE 1.6 
22 *100:149 *2208:A 10.94 
23 *100:46 *419:DIODE 1.6 
*END

*D_NET *101 0.0217811
*CONN
*I *262:DIODE I *D sky130_fd_sc_hd__diode_2
*I *2191:A I *D sky130_fd_sc_hd__clkbuf_1
*I *2190:X O *D sky130_fd_sc_hd__and2b_1
*CAP
1 *262:DIODE 4.78764e-05
2 *2191:A 0
3 *2190:X 0.00813201
4 *101:26 0.00817989
5 *262:DIODE *174:18 0.000191343
6 *262:DIODE *206:46 0.000192509
7 *101:26 *103:34 3.43655e-05
8 *101:26 *106:34 0.000110459
9 *101:26 *119:44 0.000141767
10 *101:26 *119:185 0
11 *101:26 *122:43 3.76132e-05
12 *101:26 *122:45 0.000675143
13 *101:26 *132:28 1.97238e-05
14 *101:26 *136:50 0.000131801
15 *101:26 *138:28 0.000109931
16 *101:26 *145:12 0.00012526
17 *101:26 *149:30 0
18 *101:26 *153:22 1.44785e-05
19 *101:26 *162:8 0.000259388
20 *101:26 *178:99 0.000105913
21 *101:26 *201:67 0.000272471
22 *101:26 *218:34 7.65411e-06
23 *101:26 *218:76 0.000276225
24 *2345:D *101:26 0.000272471
25 *73:16 *101:26 0.000126782
26 *82:18 *101:26 0.000578667
27 *90:24 *101:26 0.00173734
28 *97:24 *101:26 0
*RES
1 *2190:X *101:26 23.0099 
2 *101:26 *2191:A 1.6 
3 *101:26 *262:DIODE 3.43 
*END

*D_NET *102 0.0119861
*CONN
*I *2194:A I *D sky130_fd_sc_hd__and2_1
*I *267:DIODE I *D sky130_fd_sc_hd__diode_2
*I *2192:X O *D sky130_fd_sc_hd__or2_1
*CAP
1 *2194:A 0.000249887
2 *267:DIODE 0
3 *2192:X 0.00129501
4 *102:12 0.000249887
5 *102:10 0.00296105
6 *102:8 0.00425605
7 *2194:A *2194:B 0.000236507
8 *2194:A *103:18 6.18661e-05
9 *102:8 *263:DIODE 0.000119251
10 *102:8 *2289:C 0.000529014
11 *102:10 *111:10 0
12 *102:10 *113:10 0.00120079
13 *102:10 *211:14 0
14 *45:12 *102:10 0
15 *80:26 *102:8 0.000826782
*RES
1 *2192:X *102:8 27.165 
2 *102:8 *102:10 54.675 
3 *102:10 *102:12 2 
4 *102:12 *267:DIODE 1.6 
5 *102:12 *2194:A 6.22 
*END

*D_NET *103 0.0192581
*CONN
*I *2196:B I *D sky130_fd_sc_hd__xnor2_1
*I *271:DIODE I *D sky130_fd_sc_hd__diode_2
*I *268:DIODE I *D sky130_fd_sc_hd__diode_2
*I *2194:B I *D sky130_fd_sc_hd__and2_1
*I *2193:Y O *D sky130_fd_sc_hd__nand2_2
*CAP
1 *2196:B 0.000207416
2 *271:DIODE 0.000107051
3 *268:DIODE 0
4 *2194:B 0.000101822
5 *2193:Y 0.00121534
6 *103:34 0.00187674
7 *103:18 0.0012907
8 *103:14 0.0039665
9 *2194:B *104:16 3.51072e-05
10 *2196:B *205:94 0
11 *103:14 *2193:A 0.000131409
12 *103:14 *2381:A 4.66108e-05
13 *103:14 *151:96 0.000548692
14 *103:14 *156:65 0.000797429
15 *103:14 *178:74 1.44779e-05
16 *103:14 *181:150 0.000154968
17 *103:14 *181:166 0.000418731
18 *103:14 *181:177 9.30787e-05
19 *103:14 *181:194 0.000262932
20 *103:14 *183:12 0.000359924
21 *103:14 *183:150 0.000145649
22 *103:14 *192:92 0.000856981
23 *103:18 *106:62 0.000927426
24 *103:34 *470:DIODE 6.71439e-05
25 *103:34 *2225:A1 7.30547e-05
26 *103:34 *2272:C 0
27 *103:34 *119:163 0
28 *103:34 *119:185 0
29 *103:34 *179:54 8.08153e-06
30 *103:34 *181:194 0.000120786
31 *103:34 *183:150 0.000865444
32 *103:34 *205:94 0
33 *2194:A *2194:B 0.000236507
34 *2194:A *103:18 6.18661e-05
35 *2365:D *103:34 8.99926e-05
36 *2366:D *103:18 0.000182247
37 *16:10 *103:14 0.00259918
38 *36:30 *103:14 0.000484473
39 *36:30 *103:34 2.00272e-05
40 *37:16 *103:18 0.000855956
41 *42:26 *2196:B 0
42 *42:26 *103:34 0
43 *101:26 *103:34 3.43655e-05
*RES
1 *2193:Y *103:14 44.82 
2 *103:14 *103:18 23.84 
3 *103:18 *2194:B 4.39 
4 *103:18 *268:DIODE 1.6 
5 *103:14 *103:34 29.685 
6 *103:34 *271:DIODE 4.74 
7 *103:34 *2196:B 7.065 
*END

*D_NET *104 0.0191425
*CONN
*I *269:DIODE I *D sky130_fd_sc_hd__diode_2
*I *2195:A I *D sky130_fd_sc_hd__buf_1
*I *2194:X O *D sky130_fd_sc_hd__and2_1
*CAP
1 *269:DIODE 0
2 *2195:A 5.46783e-05
3 *2194:X 0.0026417
4 *104:36 5.46783e-05
5 *104:34 0.0032833
6 *104:16 0.005925
7 *2195:A *118:24 0.000154436
8 *104:16 *151:22 0
9 *104:34 *2334:A 4.82919e-05
10 *104:34 *170:155 0.000805091
11 *104:34 *171:230 0.000161617
12 *104:34 *193:72 0.000144228
13 *104:34 *204:24 0.000739908
14 *104:34 *214:87 0
15 an[3] *104:16 3.4323e-05
16 *2182:B *104:16 0.00141464
17 *2194:B *104:16 3.51072e-05
18 *49:12 *2195:A 0.000239807
19 *58:16 *104:34 0.0018978
20 *65:8 *104:34 0.00150795
*RES
1 *2194:X *104:16 44.32 
2 *104:16 *104:34 49.24 
3 *104:34 *104:36 2 
4 *104:36 *2195:A 4.135 
5 *104:36 *269:DIODE 1.6 
*END

*D_NET *105 0.0120124
*CONN
*I *2198:A I *D sky130_fd_sc_hd__clkbuf_4
*I *2197:X O *D sky130_fd_sc_hd__and4_1
*CAP
1 *2198:A 0.000599658
2 *2197:X 0.00146478
3 *105:18 0.00206444
4 *2198:A *185:84 0.000894282
5 *2198:A *188:20 0.000863204
6 *105:18 *368:DIODE 4.66108e-05
7 *105:18 *578:DIODE 5.46798e-05
8 *105:18 *2237:B 0.000210667
9 *105:18 *2290:A 0.000175733
10 *105:18 *119:44 0
11 *105:18 *122:43 0.000123158
12 *105:18 *131:18 6.96175e-05
13 *105:18 *166:30 0.000487307
14 *105:18 *174:92 0.000433939
15 *105:18 *181:30 0.000145029
16 *105:18 *181:32 0.000512058
17 *105:18 *181:46 5.16418e-05
18 *105:18 *185:84 7.8494e-06
19 *105:18 *189:30 0.000484348
20 *105:18 *189:32 4.66108e-05
21 *105:18 *201:48 9.044e-05
22 *105:18 *214:22 6.33103e-05
23 *105:18 *214:26 9.60355e-05
24 *2367:RESET_B *105:18 0.000859362
25 *26:32 *2198:A 0.000356303
26 *70:12 *105:18 0.00134962
27 *74:10 *2198:A 0
28 *74:10 *105:18 0.000126313
29 *90:24 *2198:A 0.00022143
30 *90:24 *105:18 0.000113983
*RES
1 *2197:X *105:18 49.2775 
2 *105:18 *2198:A 20.2575 
*END

*D_NET *106 0.0419417
*CONN
*I *328:DIODE I *D sky130_fd_sc_hd__diode_2
*I *2221:A2 I *D sky130_fd_sc_hd__a31o_1
*I *2200:A_N I *D sky130_fd_sc_hd__and2b_1
*I *280:DIODE I *D sky130_fd_sc_hd__diode_2
*I *317:DIODE I *D sky130_fd_sc_hd__diode_2
*I *2216:C I *D sky130_fd_sc_hd__and4_1
*I *2203:C I *D sky130_fd_sc_hd__and3_2
*I *286:DIODE I *D sky130_fd_sc_hd__diode_2
*I *2204:A2 I *D sky130_fd_sc_hd__a21oi_1
*I *288:DIODE I *D sky130_fd_sc_hd__diode_2
*I *372:DIODE I *D sky130_fd_sc_hd__diode_2
*I *2238:A I *D sky130_fd_sc_hd__and4_1
*I *2202:B I *D sky130_fd_sc_hd__xor2_1
*I *283:DIODE I *D sky130_fd_sc_hd__diode_2
*I *305:DIODE I *D sky130_fd_sc_hd__diode_2
*I *2212:A I *D sky130_fd_sc_hd__and2_2
*I *2198:X O *D sky130_fd_sc_hd__clkbuf_4
*CAP
1 *328:DIODE 0
2 *2221:A2 0.000218078
3 *2200:A_N 0.000118804
4 *280:DIODE 0
5 *317:DIODE 0
6 *2216:C 9.50515e-05
7 *2203:C 0
8 *286:DIODE 0.000111461
9 *2204:A2 8.71551e-05
10 *288:DIODE 0
11 *372:DIODE 8.99115e-05
12 *2238:A 0
13 *2202:B 1.40724e-05
14 *283:DIODE 0
15 *305:DIODE 8.65323e-05
16 *2212:A 0
17 *2198:X 6.05552e-05
18 *106:168 0.000375199
19 *106:134 0.00149106
20 *106:110 0.000133191
21 *106:108 0.0023143
22 *106:88 0.00119326
23 *106:68 0.000523325
24 *106:62 0.00228499
25 *106:51 0.000993178
26 *106:38 0.000874523
27 *106:34 0.00240068
28 *106:30 0.00218142
29 *106:14 0.00106417
30 *106:10 0.0023868
31 *106:8 0.000427442
32 *286:DIODE *138:32 9.56017e-06
33 *286:DIODE *209:61 4.77719e-05
34 *286:DIODE *211:96 1.91597e-05
35 *305:DIODE *2212:B 0.000156778
36 *305:DIODE *115:38 3.75203e-05
37 *305:DIODE *116:14 0.000121039
38 *305:DIODE *122:37 4.42148e-05
39 *2200:A_N *182:80 3.96284e-05
40 *2202:B *200:48 2.68526e-05
41 *2204:A2 *110:8 7.60965e-05
42 *2216:C *2216:A 3.53931e-05
43 *2216:C *116:84 2.97746e-05
44 *2221:A2 *2221:A1 9.47099e-06
45 *2221:A2 *169:34 7.12477e-05
46 *2221:A2 *193:50 3.49165e-05
47 *106:10 *144:56 0.000386585
48 *106:10 *158:24 0.000108771
49 *106:10 *191:14 6.99988e-05
50 *106:10 *193:10 0.000278367
51 *106:14 *2256:B 0.000197379
52 *106:14 *116:14 2.93373e-05
53 *106:14 *136:10 0.000106344
54 *106:14 *144:56 0.00144537
55 *106:14 *158:24 0.000175493
56 *106:14 *189:60 0.001167
57 *106:14 *193:10 0.00141419
58 *106:30 *2297:C 0.000186116
59 *106:30 *181:30 0.00085587
60 *106:30 *182:80 0.000137667
61 *106:34 *178:99 0.000598614
62 *106:34 *181:30 2.79424e-05
63 *106:34 *209:22 0.00047366
64 *106:34 *211:78 0
65 *106:34 *218:76 0.000735217
66 *106:38 *172:178 0.000819773
67 *106:38 *172:206 7.20899e-05
68 *106:51 *172:206 0.000263595
69 *106:51 *212:12 0.000112132
70 *106:62 *2331:A 4.66108e-05
71 *106:62 *200:48 0.00122909
72 *106:68 *127:26 3.98098e-05
73 *106:68 *148:20 0.000136884
74 *106:68 *179:10 0
75 *106:68 *199:116 0.000897245
76 *106:68 *200:48 3.29269e-05
77 *106:68 *204:30 6.59706e-06
78 *106:88 *444:DIODE 0.000174736
79 *106:88 *2270:A 1.80732e-05
80 *106:88 *2287:B 0.000141606
81 *106:88 *127:26 0.000669054
82 *106:88 *141:92 0.000268278
83 *106:88 *151:22 1.80792e-05
84 *106:88 *179:30 0
85 *106:88 *184:144 0.000295933
86 *106:88 *195:132 0.000147122
87 *106:88 *200:78 6.44585e-05
88 *106:88 *200:95 4.50017e-05
89 *106:88 *200:106 8.61426e-05
90 *106:88 *204:24 4.06515e-06
91 *106:108 *109:12 3.72081e-05
92 *106:108 *138:32 6.92161e-05
93 *106:108 *178:99 0.00157011
94 *106:108 *211:78 0
95 *106:108 *211:96 0
96 *106:110 *138:32 2.69153e-05
97 *106:134 *384:DIODE 0.000163204
98 *106:134 *385:DIODE 0.000123225
99 *106:134 *169:228 0.000458082
100 *106:134 *171:180 0.000198864
101 *106:134 *171:198 0.000114252
102 *106:134 *178:99 0
103 *106:134 *209:115 8.53557e-05
104 *106:134 *211:96 1.64067e-05
105 *106:134 *213:118 0
106 *106:134 *213:122 0.000567994
107 *106:168 *2221:A1 4.93879e-05
108 *106:168 *191:14 0.000179876
109 *106:168 *193:10 0.000106641
110 *106:168 *193:50 5.10156e-05
111 *2366:D *106:68 5.80063e-05
112 *2366:D *106:88 1.57817e-05
113 *21:24 *106:51 0.000112132
114 *26:32 *106:8 8.49205e-05
115 *33:16 *106:14 0.000198301
116 *34:8 *106:68 0.000152186
117 *37:12 *2202:B 4.66108e-05
118 *37:12 *106:62 0.00154739
119 *37:16 *106:62 0.000117887
120 *49:12 *106:134 0.000111158
121 *57:14 *106:68 6.99988e-05
122 *65:16 *106:88 0
123 *67:26 *2216:C 0
124 *75:28 *106:34 0
125 *82:18 *106:34 0.000303908
126 *101:26 *106:34 0.000110459
127 *103:18 *106:62 0.000927426
*RES
1 *2198:X *106:8 4.395 
2 *106:8 *106:10 6.225 
3 *106:10 *106:14 36.275 
4 *106:14 *2212:A 1.6 
5 *106:14 *305:DIODE 4.12 
6 *106:10 *106:30 16.94 
7 *106:30 *106:34 24.545 
8 *106:34 *106:38 10.385 
9 *106:38 *283:DIODE 1.6 
10 *106:38 *106:51 7.9 
11 *106:51 *2202:B 2.05 
12 *106:51 *106:62 27.29 
13 *106:62 *106:68 14.54 
14 *106:68 *2238:A 1.6 
15 *106:68 *372:DIODE 2.74 
16 *106:62 *106:88 26.72 
17 *106:88 *288:DIODE 1.6 
18 *106:88 *2204:A2 3.355 
19 *106:34 *106:108 21.86 
20 *106:108 *106:110 0.45 
21 *106:110 *286:DIODE 3.1 
22 *106:110 *2203:C 1.6 
23 *106:108 *106:134 31.39 
24 *106:134 *2216:C 7.235 
25 *106:134 *317:DIODE 1.6 
26 *106:30 *280:DIODE 1.6 
27 *106:30 *2200:A_N 3.1 
28 *106:8 *106:168 6.185 
29 *106:168 *2221:A2 8.57 
30 *106:168 *328:DIODE 1.6 
*END

*D_NET *107 0.0118195
*CONN
*I *2200:B I *D sky130_fd_sc_hd__and2b_1
*I *2199:X O *D sky130_fd_sc_hd__a31o_1
*CAP
1 *2200:B 0.000546957
2 *2199:X 0.0015212
3 *107:12 0.00206816
4 *2200:B *182:80 0.000339027
5 *107:12 *2186:B 0.000176852
6 *107:12 *2223:B 0.000938371
7 *107:12 *151:96 0.00169868
8 *107:12 *173:18 0.000116216
9 *107:12 *175:33 5.77967e-05
10 *107:12 *179:104 0.000199021
11 *107:12 *183:101 0
12 *2349:D *107:12 0.00159004
13 *2376:D *2200:B 0.00128414
14 *2376:RESET_B *2200:B 0.000704849
15 *2377:D *107:12 1.7902e-05
16 *36:30 *107:12 0
17 *39:28 *107:12 0.000560289
18 *51:16 *107:12 0
*RES
1 *2199:X *107:12 46.04 
2 *107:12 *2200:B 16.885 
*END

*D_NET *108 0.0137997
*CONN
*I *2201:A I *D sky130_fd_sc_hd__buf_1
*I *281:DIODE I *D sky130_fd_sc_hd__diode_2
*I *2200:X O *D sky130_fd_sc_hd__and2b_1
*CAP
1 *2201:A 0.000112393
2 *281:DIODE 0
3 *2200:X 0.00374185
4 *108:30 0.00086666
5 *108:24 0.00449612
6 *108:24 *2233:A2 0.000160213
7 *108:24 *2233:B1_N 9.77048e-06
8 *108:24 *151:69 0
9 *108:24 *154:10 6.2695e-05
10 *108:24 *182:80 9.09077e-05
11 *108:24 *187:12 0.00163602
12 *108:24 *187:16 0.000347112
13 *108:30 *220:8 0
14 *2354:D *108:24 6.19834e-05
15 *2376:RESET_B *108:24 0.00048581
16 *45:12 *2201:A 7.53034e-05
17 *45:12 *108:30 0.00155448
18 *95:24 *108:24 9.84247e-05
*RES
1 *2200:X *108:24 42.7946 
2 *108:24 *108:30 20.15 
3 *108:30 *281:DIODE 1.6 
4 *108:30 *2201:A 3.805 
*END

*D_NET *109 0.0242428
*CONN
*I *2207:B I *D sky130_fd_sc_hd__nand2_1
*I *295:DIODE I *D sky130_fd_sc_hd__diode_2
*I *290:DIODE I *D sky130_fd_sc_hd__diode_2
*I *2205:A I *D sky130_fd_sc_hd__nor2_1
*I *2206:B I *D sky130_fd_sc_hd__or2_1
*I *293:DIODE I *D sky130_fd_sc_hd__diode_2
*I *2203:X O *D sky130_fd_sc_hd__and3_2
*CAP
1 *2207:B 0.000137221
2 *295:DIODE 0
3 *290:DIODE 9.90649e-05
4 *2205:A 3.43921e-05
5 *2206:B 5.02911e-05
6 *293:DIODE 4.08925e-05
7 *2203:X 0.00330276
8 *109:62 0.000137221
9 *109:46 0.000470742
10 *109:28 0.000690165
11 *109:22 0.00248048
12 *109:20 0.00167407
13 *109:16 0.000391923
14 *109:12 0.00356483
15 *2207:B *192:126 7.00436e-05
16 *109:12 *129:22 8.41384e-05
17 *109:12 *129:41 0.000534832
18 *109:12 *211:96 2.41231e-05
19 *109:12 *212:104 0.000535463
20 *109:16 *112:10 0.000194748
21 *109:16 *177:170 0
22 *109:16 *192:126 0
23 *109:20 *177:170 0
24 *109:20 *192:126 0
25 *109:22 *2230:B 0.000154427
26 *109:22 *126:12 3.12983e-05
27 *109:22 *126:40 0.000247155
28 *109:22 *170:96 0.00073811
29 *109:22 *170:100 0.000685248
30 *109:22 *170:113 3.31204e-05
31 *109:22 *177:170 0
32 *109:22 *185:30 0.0017785
33 *109:22 *185:56 3.86607e-05
34 *109:22 *189:16 0.000886918
35 *109:22 *192:126 0
36 *109:28 *126:12 0.000306897
37 *109:28 *136:50 0
38 *109:28 *170:12 5.51245e-05
39 *109:28 *170:34 0.000518141
40 *109:28 *170:96 0.00025696
41 *2182:B *109:12 0.000362209
42 *2182:C *109:12 3.28667e-05
43 *2182:D *109:12 0.00148601
44 *2343:RESET_B *109:28 0
45 *2356:D *109:22 0.000198293
46 *2362:D *109:22 0.000208484
47 *26:38 *109:22 7.23602e-05
48 *28:28 *109:22 0.000676796
49 *28:28 *109:28 0.000303941
50 *47:12 *109:46 0.00045517
51 *81:14 *2207:B 0.000161529
52 *106:108 *109:12 3.72081e-05
*RES
1 *2203:X *109:12 49.01 
2 *109:12 *109:16 7.46 
3 *109:16 *109:20 1.7775 
4 *109:20 *109:22 49.8825 
5 *109:22 *109:28 17.6 
6 *109:28 *293:DIODE 2.05 
7 *109:28 *2206:B 2.47 
8 *109:22 *109:46 6.59 
9 *109:46 *2205:A 2.215 
10 *109:46 *290:DIODE 2.74 
11 *109:16 *109:62 2 
12 *109:62 *295:DIODE 1.6 
13 *109:62 *2207:B 7.955 
*END

*D_NET *110 0.0135946
*CONN
*I *291:DIODE I *D sky130_fd_sc_hd__diode_2
*I *2205:B I *D sky130_fd_sc_hd__nor2_1
*I *2204:Y O *D sky130_fd_sc_hd__a21oi_1
*CAP
1 *291:DIODE 0
2 *2205:B 0.000106136
3 *2204:Y 0.000361397
4 *110:14 0.000482225
5 *110:10 0.00209776
6 *110:8 0.00208306
7 *110:8 *2204:A1 2.41193e-05
8 *110:8 *2204:B1 6.69608e-06
9 *110:10 *170:96 0
10 *110:10 *170:121 0.000494233
11 *110:10 *175:185 0.000164686
12 *110:10 *175:242 0.000149377
13 *110:10 *177:170 0.000501657
14 *110:10 *186:117 0
15 *110:10 *199:74 0.000461784
16 *110:10 *199:76 6.68849e-05
17 *110:10 *199:82 0.000242786
18 *110:14 *189:28 0.000344377
19 *2204:A2 *110:8 7.60965e-05
20 *2366:RESET_B *110:10 0.000987215
21 *28:28 *110:10 0.000107433
22 *41:24 *110:10 0.00394579
23 *41:28 *110:10 0.000680921
24 *47:12 *2205:B 0.000160338
25 *47:12 *110:14 4.95797e-05
*RES
1 *2204:Y *110:8 8.88 
2 *110:8 *110:10 61.05 
3 *110:10 *110:14 6.935 
4 *110:14 *2205:B 3.955 
5 *110:14 *291:DIODE 1.6 
*END

*D_NET *111 0.0123239
*CONN
*I *2208:B I *D sky130_fd_sc_hd__and3_1
*I *297:DIODE I *D sky130_fd_sc_hd__diode_2
*I *2206:X O *D sky130_fd_sc_hd__or2_1
*CAP
1 *2208:B 0.000103133
2 *297:DIODE 0
3 *2206:X 0.000246092
4 *111:14 0.000139698
5 *111:10 0.00310205
6 *111:8 0.00331157
7 *2208:B *2208:C 0.000103131
8 *111:8 *2206:A 5.07419e-05
9 *111:10 *2253:C 0.000138969
10 *111:10 *113:10 0.00143597
11 *111:10 *134:141 0.000185405
12 *111:10 *184:155 0.000180682
13 *111:10 *184:161 0.00210195
14 *111:10 *211:10 0
15 *111:10 *211:14 0
16 *111:10 *211:60 0
17 *111:14 *2208:C 1.34594e-05
18 *2182:B *111:10 0.000331429
19 *58:18 *111:10 0.000412044
20 *67:26 *111:10 0.000278883
21 *81:14 *111:10 0.00018867
22 *102:10 *111:10 0
*RES
1 *2206:X *111:8 6.465 
2 *111:8 *111:10 74.31 
3 *111:10 *111:14 2.45 
4 *111:14 *297:DIODE 1.6 
5 *111:14 *2208:B 3.805 
*END

*D_NET *112 0.0169095
*CONN
*I *2208:C I *D sky130_fd_sc_hd__and3_1
*I *298:DIODE I *D sky130_fd_sc_hd__diode_2
*I *308:DIODE I *D sky130_fd_sc_hd__diode_2
*I *2213:A2 I *D sky130_fd_sc_hd__a21oi_1
*I *2207:Y O *D sky130_fd_sc_hd__nand2_1
*CAP
1 *2208:C 0.000191298
2 *298:DIODE 0
3 *308:DIODE 0
4 *2213:A2 0.000207834
5 *2207:Y 0.000285101
6 *112:44 0.000407184
7 *112:24 0.00123004
8 *112:12 0.003471
9 *112:10 0.00294979
10 *2213:A2 *2213:A1 0
11 *112:10 *177:170 0
12 *112:10 *192:126 0.000231133
13 *112:12 *2225:A1 2.49909e-05
14 *112:12 *2225:A2 2.45351e-05
15 *112:12 *2225:B1 0.000300407
16 *112:12 *2358:CLK 0.000158066
17 *112:12 *176:102 0.000113237
18 *112:12 *184:114 0.000798971
19 *112:12 *184:121 0.000201503
20 *112:12 *184:144 0.000947594
21 *112:12 *185:80 0.00355813
22 *112:12 *185:114 3.63661e-05
23 *112:12 *209:115 0.000193159
24 *112:24 *307:DIODE 4.8386e-05
25 *112:24 *352:DIODE 4.89295e-05
26 *112:24 *2231:B 4.66108e-05
27 *112:24 *115:112 0.000168185
28 *112:24 *184:38 0.000119242
29 *112:24 *191:12 0.000331389
30 *2208:B *2208:C 0.000103131
31 *2358:D *112:12 0.000308719
32 *28:28 *112:12 0.000196376
33 *109:16 *112:10 0.000194748
34 *111:14 *2208:C 1.34594e-05
*RES
1 *2207:Y *112:10 12.845 
2 *112:10 *112:12 54.96 
3 *112:12 *112:24 15.195 
4 *112:24 *2213:A2 8.885 
5 *112:24 *308:DIODE 1.6 
6 *112:10 *112:44 2.865 
7 *112:44 *298:DIODE 1.6 
8 *112:44 *2208:C 5.26 
*END

*D_NET *113 0.0216893
*CONN
*I *2209:A I *D sky130_fd_sc_hd__buf_1
*I *299:DIODE I *D sky130_fd_sc_hd__diode_2
*I *2208:X O *D sky130_fd_sc_hd__and3_1
*CAP
1 *2209:A 0
2 *299:DIODE 2.2081e-05
3 *2208:X 0
4 *113:32 0.0013427
5 *113:22 0.00432531
6 *113:10 0.00482142
7 *113:6 0.00181673
8 *299:DIODE *2242:C 4.66108e-05
9 *299:DIODE *169:40 5.83121e-06
10 *113:10 *2253:C 0.000252282
11 *113:10 *134:141 0.00010131
12 *113:10 *144:22 7.23602e-05
13 *113:10 *151:22 0
14 *113:22 *2215:A2 8.35068e-05
15 *113:22 *2215:B1 0.000275308
16 *113:22 *2345:CLK 1.31519e-05
17 *113:22 *116:50 0.000201525
18 *113:22 *174:156 0.000167606
19 *113:22 *202:44 0.00026102
20 *113:22 *202:62 0.000636556
21 *113:22 *211:8 0.000127485
22 *113:32 *2184:C 0.000156656
23 *113:32 *2242:A 4.99619e-05
24 *113:32 *2242:C 0.00026617
25 *113:32 *2345:CLK 8.40213e-05
26 *113:32 *116:50 0.00069148
27 *113:32 *169:40 0.000726122
28 *113:32 *174:139 1.91597e-05
29 *113:32 *174:156 8.34281e-06
30 *113:32 *184:54 0.000284969
31 *113:32 *186:36 0.000271116
32 *113:32 *204:112 0.000109506
33 *2208:A *113:10 0
34 *2345:RESET_B *113:32 3.52139e-06
35 *2347:D *113:22 0.000781101
36 *39:28 *113:22 9.87814e-05
37 *48:8 *113:32 0.000403813
38 *80:16 *113:22 0.000525011
39 *102:10 *113:10 0.00120079
40 *111:10 *113:10 0.00143597
*RES
1 *2208:X *113:6 3.6 
2 *113:6 *113:10 49.79 
3 *113:10 *113:22 43.305 
4 *113:22 *113:32 30.055 
5 *113:32 *299:DIODE 2.05 
6 *113:32 *2209:A 1.6 
*END

*D_NET *114 0.0120556
*CONN
*I *2213:A1 I *D sky130_fd_sc_hd__a21oi_1
*I *307:DIODE I *D sky130_fd_sc_hd__diode_2
*I *2210:Y O *D sky130_fd_sc_hd__inv_2
*CAP
1 *2213:A1 0.000233254
2 *307:DIODE 6.2987e-05
3 *2210:Y 0.00156236
4 *114:10 0.00250727
5 *114:8 0.00377339
6 *2213:A1 *2213:B1 4.82863e-05
7 *114:8 *119:38 0.000327061
8 *114:8 *141:36 0.00113834
9 *114:8 *186:58 0.000449976
10 *114:8 *191:40 0.000865449
11 *114:8 *191:74 0.00014576
12 *114:8 *195:50 0.000268153
13 *114:10 *2268:B 3.05373e-05
14 *114:10 *140:14 0
15 *2213:A2 *2213:A1 0
16 *37:10 *114:10 0.000594357
17 *67:26 *2213:A1 0
18 *67:26 *114:10 0
19 *112:24 *307:DIODE 4.8386e-05
*RES
1 *2210:Y *114:8 37.17 
2 *114:8 *114:10 40.395 
3 *114:10 *307:DIODE 4.395 
4 *114:10 *2213:A1 6.885 
*END

*D_NET *115 0.03188
*CONN
*I *2216:D I *D sky130_fd_sc_hd__and4_1
*I *318:DIODE I *D sky130_fd_sc_hd__diode_2
*I *373:DIODE I *D sky130_fd_sc_hd__diode_2
*I *2238:B I *D sky130_fd_sc_hd__and4_1
*I *306:DIODE I *D sky130_fd_sc_hd__diode_2
*I *2212:B I *D sky130_fd_sc_hd__and2_2
*I *329:DIODE I *D sky130_fd_sc_hd__diode_2
*I *2221:A3 I *D sky130_fd_sc_hd__a31o_1
*I *2211:X O *D sky130_fd_sc_hd__and4_2
*CAP
1 *2216:D 9.27266e-05
2 *318:DIODE 0
3 *373:DIODE 2.3331e-05
4 *2238:B 0.000194987
5 *306:DIODE 0
6 *2212:B 5.20615e-05
7 *329:DIODE 0
8 *2221:A3 8.44376e-05
9 *2211:X 0
10 *115:112 0.000853523
11 *115:70 0.00211184
12 *115:60 0.00367155
13 *115:38 0.00139459
14 *115:32 0.00318118
15 *115:14 0.0012864
16 *115:6 0.00190214
17 *373:DIODE *2392:A 3.75126e-05
18 *2212:B *116:14 4.23008e-05
19 *2212:B *122:37 0.000232116
20 *2216:D *116:84 1.28592e-05
21 *2216:D *118:24 6.20562e-05
22 *2221:A3 *2221:A1 0.000184
23 *2221:A3 *123:8 8.7846e-05
24 *2238:B *466:DIODE 0
25 *2238:B *2238:C 0.000232403
26 *2238:B *2239:A 6.15576e-06
27 *2238:B *128:16 0.000156621
28 *2238:B *204:45 0.000196669
29 *115:14 *116:72 0.000369551
30 *115:14 *172:133 0.000292059
31 *115:14 *184:38 0.000160389
32 *115:14 *191:12 0.00241105
33 *115:14 *191:14 0.000225809
34 *115:14 *193:72 6.80123e-05
35 *115:32 *2221:A1 7.23635e-05
36 *115:32 *116:72 6.08859e-05
37 *115:32 *123:8 4.41506e-05
38 *115:32 *214:38 1.54318e-05
39 *115:32 *214:53 1.81185e-05
40 *115:38 *116:14 0.000797781
41 *115:38 *116:72 0.00117895
42 *115:38 *122:37 4.82863e-05
43 *115:38 *158:24 0.000274751
44 *115:38 *190:52 5.16418e-05
45 *115:38 *190:63 0.00116043
46 *115:38 *198:44 0.000371877
47 *115:38 *214:38 0.00118232
48 *115:38 *219:24 0.000235938
49 *115:60 *2221:A1 6.1357e-05
50 *115:60 *117:24 0.000109388
51 *115:60 *123:20 0.000109388
52 *115:60 *141:36 0.00174418
53 *115:60 *191:52 0.000170283
54 *115:60 *192:38 0.000226961
55 *115:70 *2280:D 7.44125e-05
56 *115:70 *2281:B 0.000309202
57 *115:70 *2392:A 0.000381552
58 *115:70 *154:10 6.35952e-05
59 *115:70 *156:140 0.000123225
60 *115:70 *161:16 1.1561e-05
61 *115:70 *180:82 0.000118081
62 *115:70 *204:57 0.000222182
63 *115:70 *215:16 0.00146499
64 *115:112 *2231:B 4.66108e-05
65 *115:112 *2231:C 0.000312964
66 *115:112 *191:12 0.000527895
67 *115:112 *193:72 0.000190507
68 *305:DIODE *2212:B 0.000156778
69 *305:DIODE *115:38 3.75203e-05
70 *554:DIODE *115:70 8.53113e-06
71 *18:10 *115:14 0
72 *31:24 *115:112 2.75538e-05
73 *67:26 *115:112 7.4027e-05
74 *74:10 *115:38 0
75 *112:24 *115:112 0.000168185
*RES
1 *2211:X *115:6 3.6 
2 *115:6 *115:14 33.77 
3 *115:14 *2221:A3 3.775 
4 *115:14 *329:DIODE 1.6 
5 *115:14 *115:32 3.665 
6 *115:32 *115:38 44.63 
7 *115:38 *2212:B 3.775 
8 *115:38 *306:DIODE 1.6 
9 *115:32 *115:60 29.565 
10 *115:60 *115:70 30.76 
11 *115:70 *2238:B 10.37 
12 *115:70 *373:DIODE 2.05 
13 *115:6 *115:112 21.06 
14 *115:112 *318:DIODE 1.6 
15 *115:112 *2216:D 2.74 
*END

*D_NET *116 0.0253988
*CONN
*I *311:DIODE I *D sky130_fd_sc_hd__diode_2
*I *2214:A2 I *D sky130_fd_sc_hd__o21ai_1
*I *309:DIODE I *D sky130_fd_sc_hd__diode_2
*I *2213:B1 I *D sky130_fd_sc_hd__a21oi_1
*I *314:DIODE I *D sky130_fd_sc_hd__diode_2
*I *2215:A2 I *D sky130_fd_sc_hd__a21oi_1
*I *2212:X O *D sky130_fd_sc_hd__and2_2
*CAP
1 *311:DIODE 0
2 *2214:A2 8.54309e-05
3 *309:DIODE 0
4 *2213:B1 6.72628e-05
5 *314:DIODE 0
6 *2215:A2 5.4441e-05
7 *2212:X 0.00108195
8 *116:98 0.000409587
9 *116:84 0.0021786
10 *116:72 0.00321744
11 *116:50 0.00225024
12 *116:14 0.00405969
13 *2214:A2 *2214:A1 6.73131e-05
14 *2215:A2 *2215:A1 4.80825e-05
15 *2215:A2 *2215:B1 8.23457e-05
16 *116:14 *2242:A 0.000107366
17 *116:14 *2256:B 0.000105225
18 *116:14 *122:37 2.97263e-05
19 *116:14 *144:56 0.000353083
20 *116:14 *189:60 0.000638273
21 *116:14 *190:52 5.33085e-05
22 *116:14 *190:63 0.0011505
23 *116:14 *191:16 5.61585e-05
24 *116:50 *2215:B1 0.00034574
25 *116:50 *2234:B 9.53654e-06
26 *116:50 *2269:A 1.43396e-05
27 *116:50 *2269:B 4.82919e-05
28 *116:50 *2345:CLK 2.67184e-05
29 *116:50 *120:18 6.32385e-05
30 *116:50 *153:30 7.23635e-05
31 *116:50 *162:8 3.91614e-05
32 *116:50 *174:139 1.91597e-05
33 *116:50 *174:156 0.000192125
34 *116:50 *186:36 1.1647e-05
35 *116:50 *201:48 5.27288e-05
36 *116:50 *209:14 6.29646e-05
37 *116:50 *209:142 6.5536e-05
38 *116:72 *158:24 0.000295241
39 *116:72 *172:133 0.000292059
40 *116:72 *191:14 0.000313952
41 *116:72 *191:16 0.000287302
42 *116:72 *214:53 1.48335e-05
43 *116:84 *385:DIODE 1.14559e-05
44 *116:84 *2216:A 4.43871e-06
45 *116:84 *2231:B 0.000197329
46 *116:84 *2231:D 7.05866e-05
47 *116:84 *118:24 0.000125883
48 *116:84 *136:16 0.000365675
49 *116:84 *140:14 0
50 *116:84 *184:38 9.42475e-05
51 *116:84 *187:74 0.000672926
52 *305:DIODE *116:14 0.000121039
53 *556:DIODE *116:50 0.000182143
54 *2212:B *116:14 4.23008e-05
55 *2213:A1 *2213:B1 4.82863e-05
56 *2216:C *116:84 2.97746e-05
57 *2216:D *116:84 1.28592e-05
58 *2345:D *116:50 9.50342e-06
59 *2345:RESET_B *116:50 0.000256349
60 *2359:D *116:50 6.77517e-06
61 *2359:RESET_B *116:72 0.000136877
62 *2367:D *116:50 5.18317e-06
63 *17:14 *116:84 0
64 *18:10 *116:72 0
65 *49:12 *2213:B1 6.2507e-05
66 *49:12 *116:84 0.000382629
67 *67:26 *116:84 0
68 *74:10 *116:14 0
69 *75:28 *116:72 7.23533e-05
70 *95:24 *2215:A2 0
71 *100:75 *2214:A2 0.000176054
72 *100:75 *116:84 0.000368434
73 *100:75 *116:98 0.000207247
74 *106:14 *116:14 2.93373e-05
75 *113:22 *2215:A2 8.35068e-05
76 *113:22 *116:50 0.000201525
77 *113:32 *116:50 0.00069148
78 *115:14 *116:72 0.000369551
79 *115:32 *116:72 6.08859e-05
80 *115:38 *116:14 0.000797781
81 *115:38 *116:72 0.00117895
*RES
1 *2212:X *116:14 35.4675 
2 *116:14 *116:50 33.1691 
3 *116:50 *2215:A2 7.01 
4 *116:50 *314:DIODE 1.6 
5 *116:14 *116:72 25.4375 
6 *116:72 *116:84 44.365 
7 *116:84 *2213:B1 3.085 
8 *116:84 *309:DIODE 1.6 
9 *116:72 *116:98 4.245 
10 *116:98 *2214:A2 4.225 
11 *116:98 *311:DIODE 1.6 
*END

*D_NET *117 0.00974747
*CONN
*I *2215:B1 I *D sky130_fd_sc_hd__a21oi_1
*I *2214:Y O *D sky130_fd_sc_hd__o21ai_1
*CAP
1 *2215:B1 0.000156066
2 *2214:Y 0.0022109
3 *117:24 0.00236697
4 *2215:B1 *2215:A1 8.23457e-05
5 *117:24 *123:20 6.63413e-05
6 *117:24 *138:28 0.000111044
7 *117:24 *144:37 0
8 *117:24 *159:18 0.000610071
9 *117:24 *167:28 0.000906353
10 *117:24 *171:66 0.000460161
11 *117:24 *171:86 8.54618e-06
12 *117:24 *202:24 0.00111545
13 *117:24 *210:90 0.000125821
14 *117:24 *217:26 1.7635e-05
15 *2215:A2 *2215:B1 8.23457e-05
16 *2379:A *117:24 0.000121048
17 *55:20 *117:24 3.53604e-05
18 *60:14 *117:24 4.81765e-05
19 *75:38 *117:24 0
20 *94:20 *117:24 3.96183e-05
21 *95:24 *117:24 0
22 *100:75 *117:24 5.83121e-06
23 *100:84 *117:24 9.69304e-05
24 *100:99 *117:24 0.000350012
25 *113:22 *2215:B1 0.000275308
26 *115:60 *117:24 0.000109388
27 *116:50 *2215:B1 0.00034574
*RES
1 *2214:Y *117:24 46.2674 
2 *117:24 *2215:B1 6.535 
*END

*D_NET *118 0.0135404
*CONN
*I *2217:A I *D sky130_fd_sc_hd__clkbuf_4
*I *2216:X O *D sky130_fd_sc_hd__and4_1
*CAP
1 *2217:A 0.00131143
2 *2216:X 0.00100127
3 *118:24 0.0023127
4 *2217:A *2181:B 0.000114399
5 *2217:A *125:12 2.39449e-05
6 *2217:A *144:37 0.000800517
7 *2217:A *148:14 8.55298e-05
8 *2217:A *171:66 0.000137618
9 *2217:A *171:230 0.00109271
10 *2217:A *172:188 0.000436893
11 *2217:A *172:214 0.000336735
12 *2217:A *178:95 0.000482725
13 *2217:A *200:48 8.20962e-05
14 *2217:A *202:96 0.000219864
15 *2217:A *210:12 0
16 *2217:A *210:58 0
17 *118:24 *2216:B 0.00035822
18 *118:24 *2244:A 4.82863e-05
19 *118:24 *2246:B 6.52265e-05
20 *118:24 *2246:C 4.43682e-05
21 *118:24 *2247:A 0.00038879
22 *118:24 *2335:A 4.15966e-05
23 *118:24 *122:73 1.91597e-05
24 *118:24 *138:54 1.56428e-05
25 *118:24 *145:8 5.16479e-05
26 *118:24 *210:58 0.000389772
27 *2182:D *2217:A 0
28 *2195:A *118:24 0.000154436
29 *2216:D *118:24 6.20562e-05
30 *2352:RESET_B *2217:A 8.24138e-05
31 *2372:RESET_B *118:24 0.00144145
32 *49:12 *118:24 0.00167886
33 *60:10 *2217:A 0
34 *97:24 *2217:A 0.000134139
35 *116:84 *118:24 0.000125883
*RES
1 *2216:X *118:24 36.87 
2 *118:24 *2217:A 38.64 
*END

*D_NET *119 0.0359856
*CONN
*I *337:DIODE I *D sky130_fd_sc_hd__diode_2
*I *2225:A2 I *D sky130_fd_sc_hd__a21o_1
*I *2232:A I *D sky130_fd_sc_hd__and2_2
*I *356:DIODE I *D sky130_fd_sc_hd__diode_2
*I *2230:D I *D sky130_fd_sc_hd__and4_1
*I *351:DIODE I *D sky130_fd_sc_hd__diode_2
*I *2226:C I *D sky130_fd_sc_hd__nand3_2
*I *341:DIODE I *D sky130_fd_sc_hd__diode_2
*I *2223:A I *D sky130_fd_sc_hd__nor2_1
*I *333:DIODE I *D sky130_fd_sc_hd__diode_2
*I *335:DIODE I *D sky130_fd_sc_hd__diode_2
*I *2224:B I *D sky130_fd_sc_hd__xor2_2
*I *2217:X O *D sky130_fd_sc_hd__clkbuf_4
*CAP
1 *337:DIODE 0.000118365
2 *2225:A2 7.93513e-05
3 *2232:A 7.68312e-05
4 *356:DIODE 3.69588e-05
5 *2230:D 3.19338e-05
6 *351:DIODE 0
7 *2226:C 0.000538765
8 *341:DIODE 0
9 *2223:A 1.87149e-05
10 *333:DIODE 0
11 *335:DIODE 0.000219736
12 *2224:B 0.000138472
13 *2217:X 0.000239333
14 *119:185 0.000417703
15 *119:174 0.000327159
16 *119:163 0.000433634
17 *119:133 0.0011565
18 *119:119 0.000672647
19 *119:115 0.00114387
20 *119:87 0.00232789
21 *119:44 0.0019894
22 *119:38 0.00237176
23 *119:26 0.000812592
24 *119:24 0.000737424
25 *119:8 0.00179056
26 *335:DIODE *2278:A2 0.000199002
27 *337:DIODE *205:94 8.5242e-05
28 *337:DIODE *210:58 2.77283e-05
29 *2224:B *122:37 0.000353686
30 *2225:A2 *2225:A1 4.66108e-05
31 *2225:A2 *2225:B1 5.00638e-05
32 *2225:A2 *125:12 0.000163204
33 *2225:A2 *209:115 0.000352161
34 *2226:C *2226:A 0.000348704
35 *2226:C *2226:B 2.68526e-05
36 *2226:C *2392:A 5.82176e-05
37 *2226:C *126:8 9.80032e-06
38 *2226:C *184:161 8.40269e-05
39 *2230:D *2230:B 3.3485e-05
40 *2230:D *2230:C 0.000119866
41 *2230:D *2253:A 4.77719e-05
42 *2232:A *129:22 1.33285e-05
43 *2232:A *129:41 0.000305689
44 *119:8 *178:95 0.000232403
45 *119:24 *2223:B 8.77825e-05
46 *119:24 *2299:A1 0.000194036
47 *119:24 *2353:CLK 4.61833e-05
48 *119:24 *159:18 0.00024514
49 *119:24 *162:20 2.16389e-05
50 *119:24 *175:33 1.10435e-05
51 *119:24 *203:96 0
52 *119:24 *208:14 0.00032876
53 *119:24 *208:36 0.000530867
54 *119:26 *159:18 0.000120504
55 *119:38 *300:DIODE 2.5238e-05
56 *119:38 *2210:A 0.000198368
57 *119:38 *159:18 0.000164255
58 *119:38 *191:74 6.07575e-06
59 *119:38 *202:24 0.000190717
60 *119:44 *334:DIODE 3.0933e-05
61 *119:44 *2197:B 4.77769e-05
62 *119:44 *2197:D 4.42148e-05
63 *119:44 *122:37 2.69217e-05
64 *119:44 *122:43 0.000208233
65 *119:44 *122:45 0.000139035
66 *119:44 *162:8 0.00158857
67 *119:44 *181:32 0
68 *119:44 *183:57 0.00012585
69 *119:44 *183:67 8.33066e-06
70 *119:87 *2372:CLK 8.88631e-05
71 *119:87 *158:24 1.00941e-05
72 *119:87 *162:20 7.3664e-05
73 *119:87 *177:136 7.22952e-05
74 *119:87 *203:96 0.000367294
75 *119:87 *208:14 7.6235e-05
76 *119:115 *2230:B 0.000198945
77 *119:115 *2230:C 1.33285e-05
78 *119:115 *2264:B 1.37385e-05
79 *119:115 *2270:B 9.80943e-06
80 *119:115 *2271:C 0.000192357
81 *119:115 *2272:C 0.000351478
82 *119:115 *128:16 0.00051259
83 *119:115 *170:113 0.000269733
84 *119:115 *170:121 4.66108e-05
85 *119:115 *177:136 5.83121e-06
86 *119:115 *185:78 2.50166e-05
87 *119:115 *199:40 0.000159054
88 *119:115 *202:96 0.000650821
89 *119:115 *216:12 4.76263e-05
90 *119:119 *170:100 8.5242e-05
91 *119:119 *170:113 7.23533e-05
92 *119:119 *192:126 0.000157595
93 *119:133 *2392:A 4.92062e-05
94 *119:133 *126:40 0.000645148
95 *119:133 *170:100 0.00102748
96 *119:133 *192:120 0.0005944
97 *119:133 *192:126 0.000902339
98 *119:133 *211:60 0.000327894
99 *119:163 *185:78 0.00021503
100 *119:163 *205:94 0.00017765
101 *119:174 *205:94 4.04632e-05
102 *119:185 *205:94 0.00037815
103 seg[1] *2226:C 3.50562e-05
104 *2182:B *356:DIODE 4.66108e-05
105 *2182:B *2232:A 0.000378325
106 *2182:C *2232:A 4.77769e-05
107 *2182:C *119:87 0
108 *2346:D *119:8 0.000630739
109 *2353:D *119:8 0.000118081
110 *2353:D *119:24 0.00032369
111 *2356:RESET_B *119:133 0.000114814
112 *21:22 *2224:B 0.000136665
113 *21:22 *119:44 0.000315043
114 *26:32 *119:24 7.23533e-05
115 *51:16 *119:24 7.14699e-05
116 *51:16 *119:26 1.08758e-05
117 *67:26 *119:133 0.000397452
118 *70:12 *119:44 0
119 *73:16 *119:44 0.000576091
120 *80:16 *119:24 0.000167863
121 *80:16 *119:26 9.47017e-05
122 *88:20 *119:44 0.000250536
123 *100:127 *119:87 0.00121781
124 *101:26 *119:44 0.000141767
125 *101:26 *119:185 0
126 *103:34 *119:163 0
127 *103:34 *119:185 0
128 *105:18 *119:44 0
129 *112:12 *2225:A2 2.45351e-05
130 *114:8 *119:38 0.000327061
*RES
1 *2217:X *119:8 9.57 
2 *119:8 *119:24 19.79 
3 *119:24 *119:26 2.175 
4 *119:26 *119:38 15.11 
5 *119:38 *119:44 42.89 
6 *119:44 *2224:B 4.3125 
7 *119:44 *335:DIODE 8.81 
8 *119:26 *333:DIODE 1.6 
9 *119:24 *2223:A 1.96 
10 *119:8 *119:87 25.015 
11 *119:87 *119:115 28.08 
12 *119:115 *119:119 3.89 
13 *119:119 *119:133 26.195 
14 *119:133 *341:DIODE 1.6 
15 *119:133 *2226:C 8.875 
16 *119:119 *351:DIODE 3.6 
17 *119:115 *2230:D 2.74 
18 *119:87 *119:163 7.245 
19 *119:163 *356:DIODE 4.05 
20 *119:163 *119:174 0.615 
21 *119:174 *2232:A 7.155 
22 *119:174 *119:185 4.695 
23 *119:185 *2225:A2 7.17 
24 *119:185 *337:DIODE 5.52 
*END

*D_NET *120 0.0126549
*CONN
*I *2220:B I *D sky130_fd_sc_hd__or3_4
*I *2218:X O *D sky130_fd_sc_hd__or4b_1
*CAP
1 *2220:B 0.000432447
2 *2218:X 0.00240504
3 *120:18 0.00283748
4 *2220:B *2295:C1 0.000234353
5 *2220:B *181:46 0.000304845
6 *120:18 *2224:A 4.75576e-05
7 *120:18 *2330:A 5.16418e-05
8 *120:18 *131:44 0.000163667
9 *120:18 *149:30 2.18209e-05
10 *120:18 *172:64 0.000268811
11 *120:18 *174:28 6.49167e-05
12 *120:18 *184:54 0
13 *120:18 *185:84 0.000875246
14 *120:18 *188:24 1.44779e-05
15 *120:18 *188:30 0.000372575
16 *120:18 *188:34 3.01255e-05
17 *120:18 *195:72 0.000127938
18 *120:18 *196:44 0.000255017
19 *120:18 *204:112 9.14049e-05
20 *120:18 *209:14 9.01285e-05
21 *2220:A *2220:B 0.000197726
22 *75:28 *120:18 0.00101286
23 *90:24 *120:18 0.000112534
24 *94:43 *2220:B 0.00159962
25 *100:14 *2220:B 0.000979458
26 *116:50 *120:18 6.32385e-05
*RES
1 *2218:X *120:18 48.3835 
2 *120:18 *2220:B 18.265 
*END

*D_NET *121 0.010856
*CONN
*I *2220:C I *D sky130_fd_sc_hd__or3_4
*I *2219:X O *D sky130_fd_sc_hd__or4_1
*CAP
1 *2220:C 0.0016259
2 *2219:X 0.000653794
3 *121:12 0.00227969
4 *2220:C *334:DIODE 0.000333176
5 *2220:C *343:DIODE 4.77757e-05
6 *2220:C *2187:A 0.00023389
7 *2220:C *2278:A2 1.61831e-05
8 *2220:C *184:58 0.000332191
9 *2220:C *184:60 0.000186393
10 *2220:C *218:34 0.00192626
11 *121:12 *159:24 0.000111406
12 *121:12 *159:40 0.000119873
13 *121:12 *212:32 4.89295e-05
14 *121:12 *213:24 8.35157e-05
15 *256:DIODE *2220:C 4.66108e-05
16 *2188:C *2220:C 0.000548769
17 *2188:C *121:12 0.00044167
18 *2188:D *2220:C 0.000453717
19 *2220:A *2220:C 4.80814e-05
20 *60:14 *121:12 0.000559445
21 *94:26 *2220:C 3.57349e-05
22 *94:41 *2220:C 2.05056e-05
23 *94:41 *121:12 2.82887e-05
24 *94:43 *2220:C 0.000296308
25 *95:24 *121:12 0.000196048
26 *96:20 *121:12 0.000181851
*RES
1 *2219:X *121:12 21.875 
2 *121:12 *2220:C 36.94 
*END

*D_NET *122 0.0316574
*CONN
*I *2227:A I *D sky130_fd_sc_hd__and3_1
*I *331:DIODE I *D sky130_fd_sc_hd__diode_2
*I *2222:A I *D sky130_fd_sc_hd__nand2_1
*I *2246:A I *D sky130_fd_sc_hd__and3_1
*I *390:DIODE I *D sky130_fd_sc_hd__diode_2
*I *2235:C1 I *D sky130_fd_sc_hd__o211a_1
*I *365:DIODE I *D sky130_fd_sc_hd__diode_2
*I *342:DIODE I *D sky130_fd_sc_hd__diode_2
*I *2220:X O *D sky130_fd_sc_hd__or3_4
*CAP
1 *2227:A 1.84969e-05
2 *331:DIODE 3.67654e-05
3 *2222:A 3.7107e-05
4 *2246:A 0
5 *390:DIODE 2.55105e-05
6 *2235:C1 0
7 *365:DIODE 0.000116067
8 *342:DIODE 0
9 *2220:X 0.00022043
10 *122:87 0.00115821
11 *122:73 0.000292897
12 *122:49 0.000338687
13 *122:45 0.00213865
14 *122:43 0.00199411
15 *122:37 0.00321256
16 *122:22 0.00190946
17 *122:14 0.00036563
18 *365:DIODE *362:DIODE 0.00015856
19 *365:DIODE *2211:A 0.000135394
20 *365:DIODE *138:32 0.000306856
21 *365:DIODE *176:102 0.000151248
22 *365:DIODE *185:84 0.000149952
23 *2227:A *2295:A1 7.39786e-05
24 *2227:A *2295:B1 2.68526e-05
25 *2227:A *182:46 1.52352e-05
26 *122:14 *495:DIODE 1.89685e-05
27 *122:14 *2295:A1 0.000311668
28 *122:14 *2295:B1 6.5181e-05
29 *122:14 *2295:C1 0.000161467
30 *122:14 *167:48 0.00010506
31 *122:14 *218:34 9.77048e-06
32 *122:22 *495:DIODE 0
33 *122:22 *188:42 0
34 *122:37 *334:DIODE 0.000397786
35 *122:37 *424:DIODE 0.000313343
36 *122:37 *494:DIODE 4.60012e-05
37 *122:37 *2236:A 5.90512e-05
38 *122:37 *2236:B 0.000201503
39 *122:37 *149:30 0.000247199
40 *122:37 *182:46 6.44741e-05
41 *122:37 *198:28 0.000116165
42 *122:45 *145:12 0.00083875
43 *122:45 *178:99 0.00038084
44 *122:49 *2211:C 3.35219e-05
45 *122:49 *2235:A2 0.000341951
46 *122:49 *2235:B1 0.000155608
47 *122:49 *130:20 0.000785635
48 *122:49 *212:104 0.00089818
49 *122:73 *2246:C 0.000147235
50 *122:73 *145:12 0.000170416
51 *122:87 *2223:B 0.000747025
52 *305:DIODE *122:37 4.42148e-05
53 *603:DIODE *122:43 4.75977e-05
54 *2188:D *122:37 0.000116158
55 *2212:B *122:37 0.000232116
56 *2218:B *122:37 0.000540075
57 *2224:B *122:37 0.000353686
58 *2357:D *122:37 0.000140255
59 *2372:RESET_B *390:DIODE 4.82863e-05
60 *2372:RESET_B *122:45 0.000667994
61 *2372:RESET_B *122:73 0.000660339
62 *26:12 *122:37 2.01934e-05
63 *33:16 *122:37 0.000266164
64 *33:16 *122:87 0.00160679
65 *33:26 *331:DIODE 4.38278e-05
66 *33:26 *122:87 2.2923e-05
67 *41:22 *331:DIODE 0.00010978
68 *41:22 *122:87 0.000559757
69 *70:12 *122:37 2.88519e-05
70 *70:12 *122:43 0
71 *73:16 *122:45 0.00188692
72 *82:18 *122:43 2.31223e-05
73 *82:18 *122:45 0.00320729
74 *88:20 *122:43 0.000192485
75 *88:20 *122:45 3.18891e-05
76 *101:26 *122:43 3.76132e-05
77 *101:26 *122:45 0.000675143
78 *105:18 *122:43 0.000123158
79 *115:38 *122:37 4.82863e-05
80 *116:14 *122:37 2.97263e-05
81 *118:24 *122:73 1.91597e-05
82 *119:44 *122:37 2.69217e-05
83 *119:44 *122:43 0.000208233
84 *119:44 *122:45 0.000139035
*RES
1 *2220:X *122:14 11.315 
2 *122:14 *122:22 5.83 
3 *122:22 *342:DIODE 1.6 
4 *122:22 *122:37 39.94 
5 *122:37 *122:43 9.695 
6 *122:43 *122:45 54.675 
7 *122:45 *122:49 12.455 
8 *122:49 *365:DIODE 10.355 
9 *122:49 *2235:C1 1.6 
10 *122:45 *122:73 9.89 
11 *122:73 *390:DIODE 2.05 
12 *122:73 *2246:A 1.6 
13 *122:37 *122:87 22.53 
14 *122:87 *2222:A 2.215 
15 *122:87 *331:DIODE 2.74 
16 *122:14 *2227:A 2.395 
*END

*D_NET *123 0.0149151
*CONN
*I *2222:B I *D sky130_fd_sc_hd__nand2_1
*I *332:DIODE I *D sky130_fd_sc_hd__diode_2
*I *2221:X O *D sky130_fd_sc_hd__a31o_1
*CAP
1 *2222:B 4.30955e-05
2 *332:DIODE 0
3 *2221:X 0.00199462
4 *123:20 0.00211118
5 *123:8 0.00406271
6 *2222:B *2223:B 0.000155491
7 *123:8 *612:DIODE 2.51225e-05
8 *123:8 *2221:A1 5.63701e-05
9 *123:8 *141:36 0.000249431
10 *123:8 *213:79 1.56428e-05
11 *123:8 *213:92 0.000151414
12 *123:8 *215:16 0.000734454
13 *123:8 *218:76 2.76356e-05
14 *123:20 *613:DIODE 0.000116158
15 *123:20 *132:28 0.000194402
16 *123:20 *167:28 0.00122013
17 *123:20 *175:64 0.000143672
18 *123:20 *190:44 5.19125e-05
19 *123:20 *202:44 9.54399e-05
20 *2188:C *123:20 0.000726906
21 *2221:A3 *123:8 8.7846e-05
22 *2379:A *123:20 0.000211992
23 *33:26 *2222:B 0.000153816
24 *55:14 *123:20 0.000704003
25 *55:20 *123:20 0.00101924
26 *71:22 *123:20 0.00034255
27 *115:32 *123:8 4.41506e-05
28 *115:60 *123:20 0.000109388
29 *117:24 *123:20 6.63413e-05
*RES
1 *2221:X *123:8 27.51 
2 *123:8 *123:20 36.5721 
3 *123:20 *332:DIODE 1.6 
4 *123:20 *2222:B 3.085 
*END

*D_NET *124 0.00768226
*CONN
*I *2223:B I *D sky130_fd_sc_hd__nor2_1
*I *2222:Y O *D sky130_fd_sc_hd__nand2_1
*CAP
1 *2223:B 0.00122242
2 *2222:Y 0.00122242
3 *2223:B *2353:CLK 2.07338e-05
4 *2223:B *2380:A 0
5 *2223:B *169:100 0.000153816
6 *2223:B *173:18 0.000129951
7 *2223:B *175:33 0.00106342
8 *2223:B *210:101 0.000567325
9 *2222:B *2223:B 0.000155491
10 *2349:D *2223:B 0.000196527
11 *2377:D *2223:B 0.000589963
12 *33:26 *2223:B 0.000333987
13 *39:28 *2223:B 7.2779e-05
14 *51:16 *2223:B 6.03767e-05
15 *80:16 *2223:B 0.000119866
16 *107:12 *2223:B 0.000938371
17 *119:24 *2223:B 8.77825e-05
18 *122:87 *2223:B 0.000747025
*RES
1 *2222:Y *2223:B 45.775 
*END

*D_NET *125 0.0269384
*CONN
*I *343:DIODE I *D sky130_fd_sc_hd__diode_2
*I *2227:B I *D sky130_fd_sc_hd__and3_1
*I *2225:X O *D sky130_fd_sc_hd__a21o_1
*CAP
1 *343:DIODE 3.41697e-05
2 *2227:B 0.000209522
3 *2225:X 0.000733474
4 *125:26 0.000878009
5 *125:24 0.00149725
6 *125:16 0.00230404
7 *125:12 0.00217458
8 *2227:B *127:26 1.88904e-05
9 *2227:B *182:46 4.94474e-05
10 *2227:B *188:42 7.5183e-05
11 *125:12 *2225:B1 0.000234674
12 *125:12 *170:135 0.000131525
13 *125:12 *170:151 0.000513444
14 *125:12 *171:230 0.00024406
15 *125:12 *185:80 0.00158449
16 *125:12 *209:115 0.000958434
17 *125:16 *187:74 5.83121e-06
18 *125:24 *127:26 0.000395814
19 *125:24 *134:224 1.21363e-05
20 *125:24 *136:16 0.00284996
21 *125:24 *192:26 8.75474e-05
22 *125:24 *192:140 0.000660274
23 *125:26 *127:26 0.000549396
24 *125:26 *147:26 0.00216216
25 *125:26 *188:42 0.000228745
26 *2217:A *125:12 2.39449e-05
27 *2220:C *343:DIODE 4.77757e-05
28 *2225:A2 *125:12 0.000163204
29 *2358:RESET_B *125:16 0.00269009
30 *29:12 *125:16 0.000899858
31 *60:10 *125:12 0.00105382
32 *100:46 *125:26 0.00192062
33 *100:50 *125:24 6.90254e-05
34 *100:75 *125:24 0.001477
*RES
1 *2225:X *125:12 35.12 
2 *125:12 *125:16 31.43 
3 *125:16 *125:24 34.3403 
4 *125:24 *125:26 27.2625 
5 *125:26 *2227:B 6.75 
6 *125:26 *343:DIODE 4.05 
*END

*D_NET *126 0.0253801
*CONN
*I *347:DIODE I *D sky130_fd_sc_hd__diode_2
*I *2229:B I *D sky130_fd_sc_hd__xnor2_1
*I *344:DIODE I *D sky130_fd_sc_hd__diode_2
*I *2227:C I *D sky130_fd_sc_hd__and3_1
*I *2226:Y O *D sky130_fd_sc_hd__nand3_2
*CAP
1 *347:DIODE 0
2 *2229:B 7.55353e-05
3 *344:DIODE 0
4 *2227:C 9.99209e-05
5 *2226:Y 0.000141188
6 *126:40 0.000352217
7 *126:22 0.00104056
8 *126:20 0.00311016
9 *126:12 0.00322061
10 *126:8 0.00146896
11 *2227:C *2295:A1 0.000185303
12 *2227:C *182:46 8.28119e-05
13 *2229:B *2391:A 0.000108031
14 *126:8 *2226:A 8.82557e-05
15 *126:8 *2226:B 9.21227e-05
16 *126:8 *2392:A 0.000533428
17 *126:8 *185:30 0.000459383
18 *126:12 *2362:CLK 0.000118513
19 *126:12 *170:34 0.000257253
20 *126:12 *175:206 4.31106e-05
21 *126:12 *175:219 0.00098855
22 *126:12 *189:16 0.00187259
23 *126:12 *211:10 2.54523e-05
24 *126:12 *211:14 0.000709684
25 *126:12 *211:60 7.46533e-05
26 *126:20 *2278:A1 4.66826e-05
27 *126:20 *2317:A 3.45679e-05
28 *126:20 *134:47 6.02202e-05
29 *126:20 *171:135 4.39911e-06
30 *126:20 *204:82 1.5186e-05
31 *126:20 *208:38 0.000112123
32 *126:22 *378:DIODE 4.99619e-05
33 *126:22 *379:DIODE 8.82557e-05
34 *126:22 *134:47 4.82919e-05
35 *126:22 *181:46 0.00213261
36 *126:22 *181:78 0.00218276
37 *126:22 *182:46 0.00209766
38 *126:22 *183:51 0.000668271
39 *126:22 *183:57 3.03775e-05
40 *126:22 *198:28 5.29938e-05
41 *126:40 *170:100 4.9968e-05
42 *126:40 *189:16 0.000217345
43 *126:40 *211:60 2.54692e-05
44 seg[1] *126:8 0.000122331
45 *2226:C *126:8 9.80032e-06
46 *2354:RESET_B *126:12 1.32798e-05
47 *2356:RESET_B *126:40 0.000117832
48 *28:28 *126:12 0.000457043
49 *57:14 *2229:B 0.000193801
50 *67:26 *126:40 0.00017004
51 *109:22 *126:12 3.12983e-05
52 *109:22 *126:40 0.000247155
53 *109:28 *126:12 0.000306897
54 *119:133 *126:40 0.000645148
*RES
1 *2226:Y *126:8 10.26 
2 *126:8 *126:12 39.335 
3 *126:12 *126:20 27.91 
4 *126:20 *126:22 40.47 
5 *126:22 *2227:C 4.27 
6 *126:22 *344:DIODE 1.6 
7 *126:8 *126:40 12.305 
8 *126:40 *2229:B 3.79 
9 *126:40 *347:DIODE 1.6 
*END

*D_NET *127 0.0319288
*CONN
*I *345:DIODE I *D sky130_fd_sc_hd__diode_2
*I *2228:A I *D sky130_fd_sc_hd__clkbuf_1
*I *2227:X O *D sky130_fd_sc_hd__and3_1
*CAP
1 *345:DIODE 3.59455e-05
2 *2228:A 0
3 *2227:X 0.0118969
4 *127:26 0.0119328
5 *345:DIODE *141:92 4.66108e-05
6 *345:DIODE *177:157 0.000120655
7 *345:DIODE *199:74 3.83194e-05
8 *127:26 *2383:A 0.000689214
9 *127:26 *136:16 0.000627136
10 *127:26 *138:28 0.000128395
11 *127:26 *147:10 0.000180434
12 *127:26 *147:26 0.000532743
13 *127:26 *148:12 0.000277132
14 *127:26 *149:30 0.000252352
15 *127:26 *152:30 0
16 *127:26 *158:24 0.000194387
17 *127:26 *179:142 0.00036122
18 *127:26 *179:194 0.000252987
19 *127:26 *187:36 0.000131481
20 *127:26 *187:74 0.000391737
21 *127:26 *188:42 0.000199761
22 *127:26 *192:26 0.000150466
23 *127:26 *192:140 0.000167303
24 *127:26 *204:24 4.37173e-06
25 *127:26 *204:30 0.000696197
26 *2227:B *127:26 1.88904e-05
27 *2361:D *127:26 0.00019668
28 *26:12 *127:26 0.000139918
29 *31:24 *127:26 0.000158591
30 *100:46 *127:26 0.000185986
31 *100:75 *127:26 0.000266137
32 *106:68 *127:26 3.98098e-05
33 *106:88 *127:26 0.000669054
34 *125:24 *127:26 0.000395814
35 *125:26 *127:26 0.000549396
*RES
1 *2227:X *127:26 34.6803 
2 *127:26 *2228:A 1.6 
3 *127:26 *345:DIODE 2.74 
*END

*D_NET *128 0.00938311
*CONN
*I *2233:A2 I *D sky130_fd_sc_hd__o21ba_1
*I *2230:X O *D sky130_fd_sc_hd__and4_1
*CAP
1 *2233:A2 5.9243e-05
2 *2230:X 0.00152014
3 *128:16 0.00157939
4 *2233:A2 *2233:A1 4.87465e-06
5 *2233:A2 *2233:B1_N 5.17314e-05
6 *2233:A2 *187:16 1.15333e-05
7 *128:16 *350:DIODE 4.66108e-05
8 *128:16 *374:DIODE 0.000111448
9 *128:16 *444:DIODE 0.000122435
10 *128:16 *447:DIODE 4.82863e-05
11 *128:16 *466:DIODE 0
12 *128:16 *2230:C 0.00026617
13 *128:16 *129:41 0.00185878
14 *128:16 *151:39 0.00067135
15 *128:16 *151:69 0.00186012
16 *128:16 *170:113 3.53405e-05
17 *128:16 *170:121 2.75145e-05
18 *128:16 *199:14 4.66108e-05
19 *128:16 *200:14 0
20 *2238:B *128:16 0.000156621
21 *2354:D *128:16 0
22 *52:12 *128:16 0.000232111
23 *108:24 *2233:A2 0.000160213
24 *119:115 *128:16 0.00051259
*RES
1 *2230:X *128:16 49.1 
2 *128:16 *2233:A2 3.445 
*END

*D_NET *129 0.0176452
*CONN
*I *357:DIODE I *D sky130_fd_sc_hd__diode_2
*I *2238:C I *D sky130_fd_sc_hd__and4_1
*I *374:DIODE I *D sky130_fd_sc_hd__diode_2
*I *2232:B I *D sky130_fd_sc_hd__and2_2
*I *2231:X O *D sky130_fd_sc_hd__and4_1
*CAP
1 *357:DIODE 0
2 *2238:C 9.33256e-05
3 *374:DIODE 5.94626e-05
4 *2232:B 0
5 *2231:X 0.0018798
6 *129:41 0.00210844
7 *129:22 0.00210656
8 *129:12 0.0020307
9 *374:DIODE *151:69 0.000110299
10 *2238:C *132:28 0.000154023
11 *2238:C *204:45 1.33285e-05
12 *2238:C *204:57 2.49909e-05
13 *129:12 *2211:B 0.000230033
14 *129:12 *2231:B 7.01132e-05
15 *129:12 *136:16 9.30661e-05
16 *129:12 *138:32 0.00185119
17 *129:12 *184:38 0.000743472
18 *129:12 *185:114 0.000249548
19 *129:12 *192:140 4.84138e-05
20 *129:12 *210:16 0.000291243
21 *129:12 *210:18 0.000366913
22 *129:12 *210:20 0.00100052
23 *129:22 *203:120 9.37345e-05
24 *129:41 *2264:B 7.64452e-05
25 *129:41 *2270:B 7.01303e-05
26 *129:41 *2270:D 0
27 *129:41 *2271:D 0.000130171
28 *129:41 *151:39 1.44809e-05
29 *129:41 *151:69 6.20999e-05
30 *129:41 *152:30 1.89471e-05
31 *129:41 *154:10 3.52449e-05
32 *129:41 *183:150 0
33 *129:41 *204:24 1.04255e-06
34 *2182:B *129:41 0.000366806
35 *2182:C *129:22 5.09877e-05
36 *2232:A *129:22 1.33285e-05
37 *2232:A *129:41 0.000305689
38 *2238:B *2238:C 0.000232403
39 *100:127 *129:12 5.90162e-05
40 *100:127 *129:22 0
41 *109:12 *129:22 8.41384e-05
42 *109:12 *129:41 0.000534832
43 *128:16 *374:DIODE 0.000111448
44 *128:16 *129:41 0.00185878
*RES
1 *2231:X *129:12 47.885 
2 *129:12 *129:22 7.3 
3 *129:22 *2232:B 1.6 
4 *129:22 *129:41 44.18 
5 *129:41 *374:DIODE 4.98 
6 *129:41 *2238:C 6.465 
7 *129:12 *357:DIODE 1.6 
*END

*D_NET *130 0.0262745
*CONN
*I *2233:B1_N I *D sky130_fd_sc_hd__o21ba_1
*I *359:DIODE I *D sky130_fd_sc_hd__diode_2
*I *361:DIODE I *D sky130_fd_sc_hd__diode_2
*I *2234:B I *D sky130_fd_sc_hd__nand2_2
*I *363:DIODE I *D sky130_fd_sc_hd__diode_2
*I *2235:A2 I *D sky130_fd_sc_hd__o211a_1
*I *2232:X O *D sky130_fd_sc_hd__and2_2
*CAP
1 *2233:B1_N 0.000309023
2 *359:DIODE 0
3 *361:DIODE 0
4 *2234:B 9.89465e-05
5 *363:DIODE 0
6 *2235:A2 0.000198959
7 *2232:X 0
8 *130:74 0.000715634
9 *130:52 0.00146494
10 *130:46 0.00307688
11 *130:20 0.00159001
12 *130:4 0.00269532
13 *2233:B1_N *2233:A1 4.57682e-06
14 *2233:B1_N *187:16 2.46151e-06
15 *2233:B1_N *187:20 0.000178054
16 *2234:B *186:36 0
17 *2234:B *188:22 8.53113e-06
18 *2234:B *188:24 6.97124e-05
19 *2234:B *188:30 9.14049e-05
20 *2234:B *201:54 0
21 *2234:B *202:44 8.35106e-05
22 *2235:A2 *2211:C 1.42598e-05
23 *2235:A2 *2235:B1 4.84429e-05
24 *2235:A2 *188:102 0.000151985
25 *130:20 *212:104 0.000976903
26 *130:46 *2293:A 5.07376e-05
27 *130:46 *134:105 1.59026e-05
28 *130:46 *156:14 0.000918113
29 *130:46 *166:66 0.000434558
30 *130:46 *166:77 0.000176647
31 *130:46 *166:90 0.00204252
32 *130:46 *180:58 0.000145857
33 *130:46 *203:120 0.000240209
34 *130:46 *204:76 0.00015356
35 *130:46 *205:64 0.000151756
36 *130:46 *205:68 0.00037274
37 *130:46 *215:16 0.000670753
38 *130:46 *221:14 0.000338063
39 *130:52 *2215:A1 0.000410271
40 *130:52 *134:105 1.9415e-05
41 *130:52 *180:58 0.000549216
42 *130:52 *194:20 8.40269e-05
43 *130:52 *202:44 0.0016561
44 *130:52 *204:112 0.00106249
45 *130:52 *205:64 0.000547854
46 *130:74 *187:20 0.000560132
47 *2182:A *130:20 0.000191343
48 *2182:B *130:20 0.000194295
49 *2182:D *130:20 0.000464555
50 *2233:A2 *2233:B1_N 5.17314e-05
51 *2367:D *2234:B 9.30787e-05
52 *2376:D *130:46 0.000156774
53 *94:16 *130:20 0.000426813
54 *96:14 *2234:B 2.97593e-05
55 *96:14 *130:52 0.0010884
56 *100:127 *130:20 5.037e-05
57 *108:24 *2233:B1_N 9.77048e-06
58 *116:50 *2234:B 9.53654e-06
59 *122:49 *2235:A2 0.000341951
60 *122:49 *130:20 0.000785635
*RES
1 *2232:X *130:4 1.6 
2 *130:4 *130:20 33.775 
3 *130:20 *2235:A2 6.205 
4 *130:20 *363:DIODE 1.6 
5 *130:4 *130:46 47.22 
6 *130:46 *130:52 38.945 
7 *130:52 *2234:B 8.285 
8 *130:52 *361:DIODE 1.6 
9 *130:46 *130:74 7.28 
10 *130:74 *359:DIODE 1.6 
11 *130:74 *2233:B1_N 5.77 
*END

*D_NET *131 0.0163059
*CONN
*I *2235:B1 I *D sky130_fd_sc_hd__o211a_1
*I *364:DIODE I *D sky130_fd_sc_hd__diode_2
*I *367:DIODE I *D sky130_fd_sc_hd__diode_2
*I *2236:B I *D sky130_fd_sc_hd__xnor2_2
*I *2234:Y O *D sky130_fd_sc_hd__nand2_2
*CAP
1 *2235:B1 0.000114247
2 *364:DIODE 0
3 *367:DIODE 0
4 *2236:B 0.000112975
5 *2234:Y 0
6 *131:44 0.00175089
7 *131:18 0.001777
8 *131:4 0.00330067
9 *2235:B1 *2211:C 0.000227078
10 *2235:B1 *181:10 8.14891e-05
11 *2236:B *2236:A 1.91597e-05
12 *2236:B *193:10 4.40899e-05
13 *131:18 *578:DIODE 2.03245e-05
14 *131:18 *2256:A 0.000114649
15 *131:18 *2298:A 0.000533148
16 *131:18 *2359:CLK 8.74538e-05
17 *131:18 *134:16 0.000261181
18 *131:18 *153:61 4.86703e-05
19 *131:18 *169:34 7.23602e-05
20 *131:18 *169:40 0.000267999
21 *131:18 *174:92 4.76263e-05
22 *131:18 *187:36 0
23 *131:18 *193:10 0.000481661
24 *131:18 *201:48 0.000114834
25 *131:44 *2234:A 4.66108e-05
26 *131:44 *169:22 4.6618e-05
27 *131:44 *172:64 2.69493e-05
28 *131:44 *172:88 0.000149648
29 *131:44 *181:10 0.00240616
30 *131:44 *181:12 0.000775049
31 *131:44 *181:30 9.28656e-05
32 *131:44 *188:22 0.000165373
33 *131:44 *188:24 2.82887e-05
34 *131:44 *195:50 9.59285e-05
35 *131:44 *201:48 8.40269e-05
36 *131:44 *213:92 0.000767134
37 *2235:A2 *2235:B1 4.84429e-05
38 *2359:D *131:18 0.000150496
39 *2359:D *131:44 1.33285e-05
40 *2361:RESET_B *131:44 1.56261e-05
41 *26:12 *2236:B 0.00012398
42 *26:12 *131:18 0
43 *28:28 *2235:B1 9.0614e-05
44 *28:28 *131:44 0.000627124
45 *29:12 *131:44 0
46 *88:20 *131:18 0.000201995
47 *100:14 *131:18 0.000281785
48 *105:18 *131:18 6.96175e-05
49 *120:18 *131:44 0.000163667
50 *122:37 *2236:B 0.000201503
51 *122:49 *2235:B1 0.000155608
*RES
1 *2234:Y *131:4 1.6 
2 *131:4 *131:18 41.64 
3 *131:18 *2236:B 6.81 
4 *131:18 *367:DIODE 3.6 
5 *131:4 *131:44 47.63 
6 *131:44 *364:DIODE 3.6 
7 *131:44 *2235:B1 7.26 
*END

*D_NET *132 0.0140322
*CONN
*I *2238:D I *D sky130_fd_sc_hd__and4_1
*I *2237:X O *D sky130_fd_sc_hd__and4_1
*CAP
1 *2238:D 0
2 *2237:X 0.00401882
3 *132:28 0.00401882
4 *132:28 *505:DIODE 4.66108e-05
5 *132:28 *2273:A1 9.24881e-05
6 *132:28 *2280:B 4.66108e-05
7 *132:28 *2280:C 0.00034403
8 *132:28 *2281:B 0.00013451
9 *132:28 *134:105 0.000639653
10 *132:28 *153:22 0
11 *132:28 *156:38 9.40887e-05
12 *132:28 *156:42 0.000398905
13 *132:28 *156:65 0.000580742
14 *132:28 *166:30 0.000713059
15 *132:28 *178:48 0.00107581
16 *132:28 *181:150 0.000157555
17 *132:28 *182:113 0.000249748
18 *132:28 *182:128 1.01152e-05
19 *132:28 *192:92 0.000118081
20 *132:28 *195:72 1.92979e-05
21 *132:28 *202:62 0.000774269
22 *132:28 *204:57 2.14655e-05
23 *132:28 *205:64 2.69099e-05
24 *132:28 *214:38 1.00941e-05
25 *132:28 *218:34 9.23379e-06
26 *2238:C *132:28 0.000154023
27 *2374:D *132:28 1.83311e-05
28 *2379:A *132:28 0
29 *17:28 *132:28 4.4796e-05
30 *71:22 *132:28 0
31 *101:26 *132:28 1.97238e-05
32 *123:20 *132:28 0.000194402
*RES
1 *2237:X *132:28 48.6493 
2 *132:28 *2238:D 1.6 
*END

*D_NET *133 0.0144236
*CONN
*I *2239:A I *D sky130_fd_sc_hd__clkbuf_4
*I *2238:X O *D sky130_fd_sc_hd__and4_1
*CAP
1 *2239:A 0.00515505
2 *2238:X 0.00515505
3 *2239:A *466:DIODE 9.5799e-06
4 *2239:A *2298:A 0.000312838
5 *2239:A *141:36 0.000210845
6 *2239:A *158:24 0.000118907
7 *2239:A *169:34 0.000574908
8 *2239:A *171:86 3.65883e-05
9 *2239:A *173:14 9.22816e-06
10 *2239:A *192:61 9.7754e-05
11 *2239:A *193:10 0.000393664
12 *2239:A *193:22 0.00224998
13 *2239:A *214:53 4.31143e-05
14 *2238:B *2239:A 6.15576e-06
15 *2357:RESET_B *2239:A 4.99619e-05
*RES
1 *2238:X *2239:A 29.6449 
*END

*D_NET *134 0.0484231
*CONN
*I *398:DIODE I *D sky130_fd_sc_hd__diode_2
*I *2250:A I *D sky130_fd_sc_hd__nand2_1
*I *2242:C I *D sky130_fd_sc_hd__and3_2
*I *2272:A I *D sky130_fd_sc_hd__and3_2
*I *451:DIODE I *D sky130_fd_sc_hd__diode_2
*I *2254:A1 I *D sky130_fd_sc_hd__a21oi_1
*I *406:DIODE I *D sky130_fd_sc_hd__diode_2
*I *2264:A I *D sky130_fd_sc_hd__and2_2
*I *430:DIODE I *D sky130_fd_sc_hd__diode_2
*I *404:DIODE I *D sky130_fd_sc_hd__diode_2
*I *2253:B I *D sky130_fd_sc_hd__and3_2
*I *389:DIODE I *D sky130_fd_sc_hd__diode_2
*I *2245:D I *D sky130_fd_sc_hd__nand4_2
*I *378:DIODE I *D sky130_fd_sc_hd__diode_2
*I *2241:A2 I *D sky130_fd_sc_hd__a21oi_1
*I *382:DIODE I *D sky130_fd_sc_hd__diode_2
*I *2240:B I *D sky130_fd_sc_hd__xor2_1
*I *376:DIODE I *D sky130_fd_sc_hd__diode_2
*I *2239:X O *D sky130_fd_sc_hd__clkbuf_4
*CAP
1 *398:DIODE 0
2 *2250:A 0.000109782
3 *2242:C 0.000142648
4 *2272:A 7.98512e-05
5 *451:DIODE 0
6 *2254:A1 0
7 *406:DIODE 8.78999e-05
8 *2264:A 7.78695e-05
9 *430:DIODE 0
10 *404:DIODE 0
11 *2253:B 0.000143609
12 *389:DIODE 5.97742e-05
13 *2245:D 0
14 *378:DIODE 3.51617e-05
15 *2241:A2 0
16 *382:DIODE 0
17 *2240:B 6.3961e-05
18 *376:DIODE 0
19 *2239:X 0
20 *134:224 0.000604029
21 *134:175 0.00150984
22 *134:161 0.00144299
23 *134:159 0.000168354
24 *134:141 0.000395059
25 *134:126 0.000363714
26 *134:113 0.00188227
27 *134:105 0.00291464
28 *134:75 0.00051955
29 *134:65 0.00180526
30 *134:47 0.000650933
31 *134:39 0.00411237
32 *134:32 0.00348995
33 *134:16 0.000560279
34 *134:10 0.000750086
35 *134:8 0.000366114
36 *134:6 0.000647733
37 *378:DIODE *379:DIODE 0.000112349
38 *378:DIODE *181:78 0.000177879
39 *378:DIODE *191:98 0.00012657
40 *406:DIODE *407:DIODE 2.01504e-05
41 *406:DIODE *2254:A2 2.16917e-05
42 *406:DIODE *2254:B1 4.87905e-05
43 *2240:B *143:12 6.1357e-05
44 *2250:A *2250:B 0.000123969
45 *2250:A *2251:C 2.69153e-05
46 *2250:A *141:40 5.51783e-05
47 *2253:B *2253:A 2.01259e-05
48 *2264:A *2264:B 0.00012398
49 *2264:A *151:22 5.83121e-06
50 *2272:A *2272:C 8.40213e-05
51 *2272:A *162:20 0.000192125
52 *134:8 *153:61 7.06865e-05
53 *134:8 *169:34 0.000133749
54 *134:8 *169:40 4.57947e-05
55 *134:8 *187:36 0.000200219
56 *134:10 *187:36 0.000151205
57 *134:16 *2256:A 6.47357e-05
58 *134:16 *143:12 0.000180997
59 *134:16 *187:36 0.000545608
60 *134:39 *2186:D_N 2.49909e-05
61 *134:39 *2341:CLK 2.39856e-05
62 *134:39 *174:6 7.79847e-05
63 *134:39 *174:10 0.000131077
64 *134:39 *209:142 0.000112059
65 *134:39 *212:20 0.000450266
66 *134:39 *212:48 0.000436669
67 *134:47 *379:DIODE 4.99619e-05
68 *134:47 *190:88 0.000256668
69 *134:47 *208:36 0.00130954
70 *134:47 *208:38 8.49871e-05
71 *134:47 *213:12 0.000676742
72 *134:47 *213:182 0.000499443
73 *134:65 *2186:D_N 5.83121e-06
74 *134:65 *2341:CLK 1.19928e-05
75 *134:65 *166:66 7.44482e-05
76 *134:65 *169:100 3.1562e-06
77 *134:65 *190:44 2.03321e-05
78 *134:75 *2245:C 0.000497434
79 *134:75 *169:100 0.000734037
80 *134:105 *166:66 0.000277503
81 *134:105 *169:100 4.14009e-05
82 *134:105 *180:58 0.000261313
83 *134:105 *180:67 0.000149759
84 *134:105 *180:82 0.000189534
85 *134:105 *182:18 0.000118081
86 *134:105 *190:44 1.61461e-05
87 *134:105 *191:90 0.000173217
88 *134:105 *194:20 5.58206e-05
89 *134:105 *202:62 0.000201714
90 *134:105 *204:112 4.41506e-05
91 *134:105 *205:64 0.00110205
92 *134:105 *215:16 0.000245993
93 *134:105 *221:14 0.000541167
94 *134:113 *148:14 0.00137214
95 *134:113 *178:74 0.00026617
96 *134:113 *184:161 0.00139003
97 *134:126 *184:155 0.000106655
98 *134:126 *184:161 7.70828e-05
99 *134:141 *2264:B 9.01939e-05
100 *134:141 *151:22 0.000118081
101 *134:159 *205:64 0.000154168
102 *134:159 *215:16 9.23473e-05
103 *134:161 *162:20 4.82863e-05
104 *134:175 *2254:A2 3.00381e-05
105 *134:175 *162:20 0.000262702
106 *134:175 *184:20 0.0001609
107 *134:175 *184:114 0.000103385
108 *134:175 *203:120 0
109 *134:175 *208:14 0.00156018
110 *134:175 *210:58 4.57247e-05
111 *134:224 *141:40 6.5172e-05
112 *134:224 *147:18 0.000148416
113 *134:224 *147:26 3.16636e-05
114 *134:224 *148:12 0.000121032
115 *134:224 *169:34 2.78732e-05
116 *134:224 *171:16 1.34503e-05
117 *134:224 *179:170 0.000119762
118 *134:224 *187:36 2.15594e-05
119 *134:224 *192:26 0.000113972
120 *299:DIODE *2242:C 4.66108e-05
121 *2259:A *134:224 1.35683e-05
122 *2341:D *134:65 2.99555e-05
123 *2346:D *134:113 0.000158501
124 *2351:RESET_B *134:175 4.56567e-05
125 *2357:RESET_B *134:224 0.000158066
126 *2372:D *134:175 0.00126283
127 *26:12 *134:224 0.000374472
128 *33:26 *389:DIODE 0.00016031
129 *33:26 *134:75 2.14725e-05
130 *48:8 *2242:C 0.000193801
131 *58:18 *134:113 0.0013917
132 *58:18 *134:126 0.0001752
133 *67:26 *134:113 0.000233503
134 *88:20 *134:8 0.000115888
135 *88:20 *134:10 0.000274595
136 *88:20 *134:16 0.000180925
137 *95:46 *134:175 0.000675891
138 *100:50 *134:224 3.54721e-05
139 *100:75 *134:224 1.0397e-05
140 *100:127 *134:175 0.000186554
141 *111:10 *134:141 0.000185405
142 *113:10 *134:141 0.00010131
143 *113:32 *2242:C 0.00026617
144 *125:24 *134:224 1.21363e-05
145 *126:20 *134:47 6.02202e-05
146 *126:22 *378:DIODE 4.99619e-05
147 *126:22 *134:47 4.82919e-05
148 *130:46 *134:105 1.59026e-05
149 *130:52 *134:105 1.9415e-05
150 *131:18 *134:16 0.000261181
151 *132:28 *134:105 0.000639653
*RES
1 *2239:X *134:6 3.6 
2 *134:6 *134:8 5.205 
3 *134:8 *134:10 3.165 
4 *134:10 *134:16 16.445 
5 *134:16 *376:DIODE 1.6 
6 *134:16 *2240:B 2.74 
7 *134:10 *134:32 3.83 
8 *134:32 *382:DIODE 1.6 
9 *134:32 *134:39 35.985 
10 *134:39 *134:47 24.445 
11 *134:47 *2241:A2 1.6 
12 *134:47 *378:DIODE 3.775 
13 *134:39 *134:65 4.7 
14 *134:65 *134:75 12.5 
15 *134:75 *2245:D 1.6 
16 *134:75 *389:DIODE 3.085 
17 *134:65 *134:105 38.33 
18 *134:105 *134:113 42.01 
19 *134:113 *2253:B 5.085 
20 *134:113 *134:126 4.145 
21 *134:126 *404:DIODE 1.6 
22 *134:126 *134:141 9.46 
23 *134:141 *430:DIODE 1.6 
24 *134:141 *2264:A 3.355 
25 *134:105 *134:159 4.145 
26 *134:159 *134:161 0.45 
27 *134:161 *134:175 39.04 
28 *134:175 *406:DIODE 2.74 
29 *134:175 *2254:A1 1.6 
30 *134:161 *451:DIODE 1.6 
31 *134:159 *2272:A 3.43 
32 *134:8 *2242:C 6.81 
33 *134:6 *134:224 17.835 
34 *134:224 *2250:A 4.12 
35 *134:224 *398:DIODE 1.6 
*END

*D_NET *135 0.00464153
*CONN
*I *2243:A I *D sky130_fd_sc_hd__nor2_2
*I *2241:Y O *D sky130_fd_sc_hd__a21oi_1
*CAP
1 *2243:A 0.000919844
2 *2241:Y 0.000919844
3 *2243:A *483:DIODE 0.000272252
4 *2243:A *2288:B1 0.000158564
5 *2243:A *2289:C 2.69153e-05
6 *2243:A *156:91 0.000370786
7 *2243:A *179:82 0.000301354
8 *2243:A *179:104 0.000453123
9 *2243:A *180:20 8.52977e-05
10 *2243:A *181:78 0.000344448
11 *2243:A *199:142 0.000344448
12 *2243:A *203:12 7.38695e-05
13 *2243:A *205:14 0.000370786
*RES
1 *2241:Y *2243:A 30.84 
*END

*D_NET *136 0.0304198
*CONN
*I *383:DIODE I *D sky130_fd_sc_hd__diode_2
*I *2243:B I *D sky130_fd_sc_hd__nor2_2
*I *385:DIODE I *D sky130_fd_sc_hd__diode_2
*I *2244:B I *D sky130_fd_sc_hd__or2_1
*I *2242:X O *D sky130_fd_sc_hd__and3_2
*CAP
1 *383:DIODE 8.12397e-05
2 *2243:B 0
3 *385:DIODE 0.000145877
4 *2244:B 0
5 *2242:X 2.94305e-05
6 *136:50 0.00777584
7 *136:16 0.0014433
8 *136:14 0.00173154
9 *136:10 0.00815815
10 *383:DIODE *203:12 0.000115345
11 *385:DIODE *384:DIODE 5.72829e-05
12 *385:DIODE *2216:A 0.000117832
13 *385:DIODE *192:140 4.18603e-06
14 *136:10 *193:10 0.000106344
15 *136:14 *158:24 0
16 *136:16 *2231:D 0.000223083
17 *136:16 *2259:B 8.80441e-05
18 *136:16 *148:12 1.84109e-05
19 *136:16 *179:170 0.00070355
20 *136:16 *187:74 0.00254685
21 *136:16 *187:78 0.00083333
22 *136:16 *192:26 4.58889e-05
23 *136:16 *192:140 0.000109333
24 *136:50 *153:22 0.00017123
25 *136:50 *158:24 0
26 *136:50 *163:60 5.46965e-05
27 *136:50 *170:34 0
28 *136:50 *218:34 0
29 *2343:RESET_B *136:50 0
30 *28:28 *136:50 0.000126563
31 *30:18 *136:50 0
32 *36:30 *136:50 0
33 *42:26 *136:50 3.3616e-05
34 *66:32 *136:50 4.49232e-05
35 *75:38 *136:50 0.00014068
36 *80:26 *136:50 0.000201584
37 *97:24 *136:50 7.87237e-05
38 *100:46 *136:16 0.000924228
39 *101:26 *136:50 0.000131801
40 *106:14 *136:10 0.000106344
41 *106:134 *385:DIODE 0.000123225
42 *109:28 *136:50 0
43 *116:84 *385:DIODE 1.14559e-05
44 *116:84 *136:16 0.000365675
45 *125:24 *136:16 0.00284996
46 *127:26 *136:16 0.000627136
47 *129:12 *136:16 9.30661e-05
*RES
1 *2242:X *136:10 5.3525 
2 *136:10 *136:14 1.412 
3 *136:14 *136:16 56.5875 
4 *136:16 *2244:B 3.6 
5 *136:16 *385:DIODE 6.63 
6 *136:10 *136:50 22.7615 
7 *136:50 *2243:B 1.6 
8 *136:50 *383:DIODE 3.43 
*END

*D_NET *137 0.00467552
*CONN
*I *2246:B I *D sky130_fd_sc_hd__and3_1
*I *2244:X O *D sky130_fd_sc_hd__or2_1
*CAP
1 *2246:B 0.00133801
2 *2244:X 0.00133801
3 *49:12 *2246:B 0.00193428
4 *118:24 *2246:B 6.52265e-05
*RES
1 *2244:X *2246:B 21.935 
*END

*D_NET *138 0.0243749
*CONN
*I *391:DIODE I *D sky130_fd_sc_hd__diode_2
*I *2246:C I *D sky130_fd_sc_hd__and3_1
*I *393:DIODE I *D sky130_fd_sc_hd__diode_2
*I *2248:B_N I *D sky130_fd_sc_hd__or2b_1
*I *2245:Y O *D sky130_fd_sc_hd__nand4_2
*CAP
1 *391:DIODE 0
2 *2246:C 0.000189751
3 *393:DIODE 0
4 *2248:B_N 4.56702e-05
5 *2245:Y 0.00573499
6 *138:54 0.000386669
7 *138:32 0.000496027
8 *138:28 0.00638226
9 *2248:B_N *191:12 0.000179071
10 *138:28 *2245:A 5.37755e-05
11 *138:28 *2245:B 0.00015625
12 *138:28 *2245:C 1.19928e-05
13 *138:28 *2247:A 0
14 *138:28 *145:12 0.00153529
15 *138:28 *149:30 0.000462072
16 *138:28 *152:30 0.00010251
17 *138:28 *169:160 5.02126e-06
18 *138:28 *171:86 0.00134327
19 *138:28 *196:16 0
20 *138:28 *196:70 0
21 *138:28 *201:67 0.000327659
22 *138:28 *202:24 0.000127571
23 *138:28 *212:20 0.000116216
24 *138:32 *303:DIODE 0.000158554
25 *138:32 *362:DIODE 1.5379e-05
26 *138:32 *2211:A 7.47994e-05
27 *138:32 *185:114 0.000262813
28 *138:32 *211:96 0.000528971
29 *138:54 *2247:A 0
30 *138:54 *145:12 0.000274842
31 *286:DIODE *138:32 9.56017e-06
32 *365:DIODE *138:32 0.000306856
33 *2341:RESET_B *138:28 0
34 *2342:RESET_B *138:28 0.000413343
35 *2379:A *138:28 0.00048901
36 *21:24 *138:28 0.000291891
37 *31:24 *2248:B_N 0.000180373
38 *33:26 *138:28 9.79111e-05
39 *60:14 *138:28 0.000392826
40 *75:38 *138:28 0.000495779
41 *97:24 *138:28 0.000221949
42 *101:26 *138:28 0.000109931
43 *106:108 *138:32 6.92161e-05
44 *106:110 *138:32 2.69153e-05
45 *117:24 *138:28 0.000111044
46 *118:24 *2246:C 4.43682e-05
47 *118:24 *138:54 1.56428e-05
48 *122:73 *2246:C 0.000147235
49 *127:26 *138:28 0.000128395
50 *129:12 *138:32 0.00185119
*RES
1 *2245:Y *138:28 40.6551 
2 *138:28 *138:32 19.355 
3 *138:32 *2248:B_N 7.745 
4 *138:32 *393:DIODE 1.6 
5 *138:28 *138:54 5.87 
6 *138:54 *2246:C 4.0225 
7 *138:54 *391:DIODE 1.6 
*END

*D_NET *139 0.00349675
*CONN
*I *2247:A I *D sky130_fd_sc_hd__buf_1
*I *2246:X O *D sky130_fd_sc_hd__and3_1
*CAP
1 *2247:A 0.000752539
2 *2246:X 0.000752539
3 *2247:A *145:8 0.000199833
4 *2247:A *145:12 0
5 *2247:A *201:67 0.000182618
6 *82:16 *2247:A 0.00122043
7 *118:24 *2247:A 0.00038879
8 *138:28 *2247:A 0
9 *138:54 *2247:A 0
*RES
1 *2246:X *2247:A 25.395 
*END

*D_NET *140 0.011225
*CONN
*I *401:DIODE I *D sky130_fd_sc_hd__diode_2
*I *2251:B I *D sky130_fd_sc_hd__and3_1
*I *2248:X O *D sky130_fd_sc_hd__or2b_1
*CAP
1 *401:DIODE 0
2 *2251:B 0.000179583
3 *2248:X 0.000609249
4 *140:16 0.000179583
5 *140:14 0.00303129
6 *140:12 0.00364054
7 *2251:B *2251:C 2.65814e-06
8 *2251:B *143:12 6.42094e-06
9 *140:12 *392:DIODE 4.77769e-05
10 *140:14 *2251:C 0
11 *140:14 *147:26 0
12 *140:14 *152:44 0.000956233
13 *140:14 *153:61 0.0010146
14 *140:14 *201:22 0.000670793
15 *2251:A *2251:B 6.55777e-05
16 *17:14 *140:14 0.000544589
17 *67:26 *140:14 0.000276073
18 *114:10 *140:14 0
19 *116:84 *140:14 0
*RES
1 *2248:X *140:12 11.415 
2 *140:12 *140:14 62.07 
3 *140:14 *140:16 2 
4 *140:16 *2251:B 3.775 
5 *140:16 *401:DIODE 1.6 
*END

*D_NET *141 0.0270244
*CONN
*I *2254:A2 I *D sky130_fd_sc_hd__a21oi_1
*I *407:DIODE I *D sky130_fd_sc_hd__diode_2
*I *2253:C I *D sky130_fd_sc_hd__and3_2
*I *405:DIODE I *D sky130_fd_sc_hd__diode_2
*I *428:DIODE I *D sky130_fd_sc_hd__diode_2
*I *2263:B I *D sky130_fd_sc_hd__and3_1
*I *399:DIODE I *D sky130_fd_sc_hd__diode_2
*I *2250:B I *D sky130_fd_sc_hd__nand2_1
*I *2249:X O *D sky130_fd_sc_hd__and4_2
*CAP
1 *2254:A2 1.87381e-05
2 *407:DIODE 4.60122e-05
3 *2253:C 0.000221804
4 *405:DIODE 0
5 *428:DIODE 0
6 *2263:B 3.73778e-05
7 *399:DIODE 0
8 *2250:B 0.000143135
9 *2249:X 0.000100319
10 *141:114 0.00127243
11 *141:92 0.00100784
12 *141:77 0.000896951
13 *141:68 0.00112042
14 *141:58 0.00298334
15 *141:40 0.000347216
16 *141:36 0.00255067
17 *141:8 0.00325044
18 *407:DIODE *2254:B1 0.00019898
19 *407:DIODE *210:58 0.000136853
20 *2253:C *144:22 6.26638e-05
21 *2254:A2 *210:58 5.05521e-05
22 *2263:B *181:194 2.68526e-05
23 *141:8 *2249:C 1.1315e-05
24 *141:8 *192:61 0
25 *141:8 *206:56 0
26 *141:36 *612:DIODE 0.000183034
27 *141:36 *2221:A1 4.66108e-05
28 *141:36 *187:74 0.000334283
29 *141:36 *191:40 0.000228871
30 *141:36 *191:52 0.000119246
31 *141:36 *192:61 3.14677e-05
32 *141:36 *193:22 0.000119756
33 *141:36 *198:68 0.00016582
34 *141:36 *206:46 0.000163985
35 *141:36 *213:58 0.000523088
36 *141:36 *213:79 3.57349e-05
37 *141:36 *213:92 0.000404269
38 *141:36 *214:38 0.000524375
39 *141:36 *214:53 8.7152e-06
40 *141:36 *215:16 0.000132403
41 *141:36 *218:76 8.23457e-05
42 *141:58 *2189:A 9.08126e-05
43 *141:58 *2281:A 0
44 *141:58 *173:52 0.000119325
45 *141:58 *178:85 0.000109198
46 *141:58 *199:92 2.54487e-05
47 *141:58 *206:56 0
48 *141:58 *206:88 0
49 *141:68 *2382:A 1.45731e-05
50 *141:68 *152:30 0.0016025
51 *141:68 *154:10 3.97211e-05
52 *141:68 *158:24 0
53 *141:68 *163:60 2.08619e-05
54 *141:77 *152:30 0.000121643
55 *141:77 *181:194 1.43191e-05
56 *141:92 *144:22 0.000124543
57 *141:92 *152:30 0.000400106
58 *141:92 *177:157 8.72302e-05
59 *141:92 *177:170 0.000148267
60 *141:92 *199:74 0.000416027
61 *141:92 *200:78 0.000266605
62 *141:114 *2183:A 0.000550798
63 *141:114 *2183:B 3.61276e-05
64 *141:114 *2281:A 0
65 *141:114 *2382:A 2.24912e-05
66 *141:114 *163:60 0
67 *141:114 *184:114 0
68 *141:114 *206:88 0
69 *238:DIODE *141:114 6.15576e-06
70 *345:DIODE *141:92 4.66108e-05
71 *406:DIODE *407:DIODE 2.01504e-05
72 *406:DIODE *2254:A2 2.16917e-05
73 *2182:A *141:114 9.14098e-06
74 *2239:A *141:36 0.000210845
75 *2250:A *2250:B 0.000123969
76 *2250:A *141:40 5.51783e-05
77 *2348:RESET_B *141:114 0
78 *2351:RESET_B *141:114 0
79 *2368:D *141:58 8.32607e-05
80 *2377:D *141:8 0.000164949
81 *2377:D *141:58 0.00049127
82 *17:14 *141:36 9.24881e-05
83 *36:30 *141:68 1.35153e-05
84 *95:46 *141:114 0
85 *106:88 *141:92 0.000268278
86 *111:10 *2253:C 0.000138969
87 *113:10 *2253:C 0.000252282
88 *114:8 *141:36 0.00113834
89 *115:60 *141:36 0.00174418
90 *123:8 *141:36 0.000249431
91 *134:175 *2254:A2 3.00381e-05
92 *134:224 *141:40 6.5172e-05
*RES
1 *2249:X *141:8 5.6175 
2 *141:8 *141:36 49.8085 
3 *141:36 *141:40 4.52 
4 *141:40 *2250:B 4.405 
5 *141:40 *399:DIODE 1.6 
6 *141:8 *141:58 14.895 
7 *141:58 *141:68 5.9727 
8 *141:68 *2263:B 2.05 
9 *141:68 *141:77 1.485 
10 *141:77 *428:DIODE 1.6 
11 *141:77 *141:92 19.45 
12 *141:92 *405:DIODE 1.6 
13 *141:92 *2253:C 10.685 
14 *141:58 *141:114 22.1225 
15 *141:114 *407:DIODE 3.775 
16 *141:114 *2254:A2 2.395 
*END

*D_NET *142 0.00371285
*CONN
*I *2251:C I *D sky130_fd_sc_hd__and3_1
*I *2250:Y O *D sky130_fd_sc_hd__nand2_1
*CAP
1 *2251:C 0.00117306
2 *2250:Y 0.00117306
3 *2251:C *143:12 1.83194e-05
4 *2251:C *167:48 0.000410224
5 *2251:C *201:22 0.000746783
6 *2251:C *217:18 0.000161837
7 *2250:A *2251:C 2.69153e-05
8 *2251:B *2251:C 2.65814e-06
9 *140:14 *2251:C 0
*RES
1 *2250:Y *2251:C 32.145 
*END

*D_NET *143 0.0160797
*CONN
*I *402:DIODE I *D sky130_fd_sc_hd__diode_2
*I *2252:A I *D sky130_fd_sc_hd__buf_1
*I *2251:X O *D sky130_fd_sc_hd__and3_1
*CAP
1 *402:DIODE 7.78947e-05
2 *2252:A 0
3 *2251:X 0.00110277
4 *143:28 0.00071624
5 *143:24 0.00181887
6 *143:12 0.00228329
7 *143:12 *190:46 0.000708288
8 *143:12 *190:52 0.000309612
9 *143:24 *606:DIODE 4.66108e-05
10 *143:24 *171:116 0.000277715
11 *143:24 *178:34 2.98958e-05
12 *143:24 *180:58 0.000343223
13 *143:24 *181:30 0.000119756
14 *143:24 *183:37 0.000359787
15 *143:24 *190:46 9.98725e-05
16 *143:24 *194:47 0.000360846
17 *143:24 *198:14 0.000237437
18 *143:24 *219:26 0.00096866
19 *143:28 *589:DIODE 4.66108e-05
20 *143:28 *171:116 6.07575e-06
21 *143:28 *180:58 0.00023065
22 *400:DIODE *143:12 4.75959e-05
23 *2240:B *143:12 6.1357e-05
24 *2251:A *143:12 0.000256709
25 *2251:B *143:12 6.42094e-06
26 *2251:C *143:12 1.83194e-05
27 *2357:D *143:12 0.000480168
28 *2357:D *143:24 0.000308486
29 *2364:D *143:28 0.000417626
30 *2374:D *143:24 2.49909e-05
31 *2374:RESET_B *143:24 8.67751e-05
32 *30:18 *143:28 2.25746e-05
33 *35:30 *143:24 0.0027809
34 *35:30 *143:28 0.00070884
35 *100:14 *143:12 0.000378519
36 *100:16 *143:12 0.000155344
37 *134:16 *143:12 0.000180997
*RES
1 *2251:X *143:12 24.955 
2 *143:12 *143:24 42.475 
3 *143:24 *143:28 12.795 
4 *143:28 *2252:A 1.6 
5 *143:28 *402:DIODE 2.74 
*END

*D_NET *144 0.0301289
*CONN
*I *418:DIODE I *D sky130_fd_sc_hd__diode_2
*I *414:DIODE I *D sky130_fd_sc_hd__diode_2
*I *2257:A2 I *D sky130_fd_sc_hd__a21o_1
*I *409:DIODE I *D sky130_fd_sc_hd__diode_2
*I *412:DIODE I *D sky130_fd_sc_hd__diode_2
*I *2256:B I *D sky130_fd_sc_hd__xor2_1
*I *2255:A I *D sky130_fd_sc_hd__nor2_1
*I *2258:C I *D sky130_fd_sc_hd__nand3_2
*I *2253:X O *D sky130_fd_sc_hd__and3_2
*CAP
1 *418:DIODE 0
2 *414:DIODE 0.000124832
3 *2257:A2 1.309e-05
4 *409:DIODE 0
5 *412:DIODE 3.72213e-05
6 *2256:B 0.00024985
7 *2255:A 0.00015836
8 *2258:C 6.5416e-05
9 *2253:X 0.00203942
10 *144:93 0.000996907
11 *144:56 0.00087111
12 *144:45 0.00077795
13 *144:43 0.00104557
14 *144:37 0.00251064
15 *144:26 0.000719107
16 *144:24 0.000407996
17 *144:22 0.00243536
18 *412:DIODE *166:30 1.79174e-05
19 *414:DIODE *413:DIODE 2.896e-05
20 *414:DIODE *2294:A 8.23457e-05
21 *414:DIODE *167:28 4.66826e-05
22 *2255:A *2255:B 0.000158072
23 *2255:A *145:14 4.99782e-05
24 *2256:B *2279:A 6.72833e-06
25 *2256:B *2279:B 1.32102e-05
26 *2257:A2 *167:28 1.31519e-05
27 *2258:C *2258:A 8.1871e-05
28 *2258:C *196:117 0.000122325
29 *2258:C *197:68 8.49205e-05
30 *2258:C *197:90 0.000183819
31 *144:22 *2271:A 0.000343773
32 *144:22 *177:126 0.000153073
33 *144:22 *177:136 0.000236846
34 *144:22 *177:157 0.000337268
35 *144:22 *177:170 0.000151574
36 *144:22 *182:136 6.27029e-05
37 *144:22 *185:14 0.000245607
38 *144:22 *185:78 0.00015046
39 *144:22 *202:96 0.000158072
40 *144:22 *205:68 0.000397734
41 *144:24 *196:117 0.0014348
42 *144:24 *197:90 0.00162693
43 *144:26 *196:117 3.57349e-05
44 *144:26 *197:90 4.66108e-05
45 *144:37 *171:66 0.000145394
46 *144:37 *172:188 0.000195474
47 *144:37 *197:20 8.82978e-05
48 *144:37 *197:44 0.000968411
49 *144:43 *145:14 0.0017751
50 *144:43 *186:10 0.00071127
51 *144:43 *197:20 9.54469e-05
52 *144:45 *2255:B 0
53 *144:56 *2242:A 0.000198746
54 *144:56 *158:24 0.000184913
55 *144:56 *191:14 0.000211491
56 *144:56 *191:16 0.00075652
57 *144:93 *507:DIODE 0.00022786
58 *144:93 *167:28 0.000497382
59 *2182:D *144:37 0
60 *2217:A *144:37 0.000800517
61 *2253:C *144:22 6.26638e-05
62 *26:32 *144:93 0.00116403
63 *33:16 *2256:B 4.66108e-05
64 *55:20 *144:37 0.000387075
65 *55:20 *144:43 9.37731e-05
66 *97:24 *144:37 0.000109379
67 *106:10 *144:56 0.000386585
68 *106:14 *2256:B 0.000197379
69 *106:14 *144:56 0.00144537
70 *113:10 *144:22 7.23602e-05
71 *116:14 *2256:B 0.000105225
72 *116:14 *144:56 0.000353083
73 *117:24 *144:37 0
74 *141:92 *144:22 0.000124543
*RES
1 *2253:X *144:22 39.54 
2 *144:22 *144:24 15.285 
3 *144:24 *144:26 0.45 
4 *144:26 *2258:C 4.12 
5 *144:26 *144:37 20.975 
6 *144:37 *144:43 25.655 
7 *144:43 *144:45 0.615 
8 *144:45 *2255:A 4.465 
9 *144:45 *144:56 23.78 
10 *144:56 *2256:B 8.535 
11 *144:56 *412:DIODE 4.05 
12 *144:43 *409:DIODE 1.6 
13 *144:37 *144:93 17.075 
14 *144:93 *2257:A2 1.96 
15 *144:93 *414:DIODE 3.775 
16 *144:24 *418:DIODE 1.6 
*END

*D_NET *145 0.0155668
*CONN
*I *410:DIODE I *D sky130_fd_sc_hd__diode_2
*I *2255:B I *D sky130_fd_sc_hd__nor2_1
*I *2254:Y O *D sky130_fd_sc_hd__a21oi_1
*CAP
1 *410:DIODE 0
2 *2255:B 0.000182608
3 *2254:Y 0.00103493
4 *145:14 0.00156883
5 *145:12 0.00286367
6 *145:8 0.00251237
7 *145:8 *210:58 0.00124783
8 *145:12 *162:8 0.000428393
9 *145:12 *178:99 0
10 *145:12 *201:67 0
11 *2247:A *145:8 0.000199833
12 *2247:A *145:12 0
13 *2255:A *2255:B 0.000158072
14 *2255:A *145:14 4.99782e-05
15 *2345:D *145:12 0.000202975
16 *2361:D *2255:B 5.83121e-06
17 *73:16 *145:12 0.000340136
18 *101:26 *145:12 0.00012526
19 *118:24 *145:8 5.16479e-05
20 *122:45 *145:12 0.00083875
21 *122:73 *145:12 0.000170416
22 *138:28 *145:12 0.00153529
23 *138:54 *145:12 0.000274842
24 *144:43 *145:14 0.0017751
25 *144:45 *2255:B 0
*RES
1 *2254:Y *145:8 17.85 
2 *145:8 *145:12 42.905 
3 *145:12 *145:14 18.045 
4 *145:14 *2255:B 4.75 
5 *145:14 *410:DIODE 1.6 
*END

*D_NET *146 0.0117519
*CONN
*I *2259:B I *D sky130_fd_sc_hd__and3_1
*I *2257:X O *D sky130_fd_sc_hd__a21o_1
*CAP
1 *2259:B 0.00107787
2 *2257:X 0.0012848
3 *146:20 0.00236266
4 *2259:B *501:DIODE 2.42043e-05
5 *2259:B *147:26 0.000113363
6 *2259:B *148:12 2.98644e-05
7 *2259:B *187:20 0.00184373
8 *2259:B *187:36 2.17185e-05
9 *2259:B *192:26 0.00015639
10 *2259:B *195:50 0.000110165
11 *2259:B *195:90 0.000155022
12 *146:20 *2257:B1 0.00022786
13 *146:20 *2332:A 0.000229889
14 *146:20 *172:62 0.000152084
15 *146:20 *182:26 0.000921864
16 *146:20 *187:20 0.00022027
17 *146:20 *195:90 0.0015516
18 *146:20 *197:24 0.000414641
19 *95:24 *146:20 0.000615853
20 *100:46 *2259:B 0.000150036
21 *136:16 *2259:B 8.80441e-05
*RES
1 *2257:X *146:20 36.62 
2 *146:20 *2259:B 29.27 
*END

*D_NET *147 0.0147128
*CONN
*I *420:DIODE I *D sky130_fd_sc_hd__diode_2
*I *2259:C I *D sky130_fd_sc_hd__and3_1
*I *423:DIODE I *D sky130_fd_sc_hd__diode_2
*I *2261:B I *D sky130_fd_sc_hd__xnor2_1
*I *2258:Y O *D sky130_fd_sc_hd__nand3_2
*CAP
1 *420:DIODE 0
2 *2259:C 0
3 *423:DIODE 0
4 *2261:B 0.000200601
5 *2258:Y 0.00162407
6 *147:26 0.00136871
7 *147:18 0.00129134
8 *147:10 0.000723402
9 *147:8 0.00222423
10 *2261:B *2261:A 0.000238077
11 *2261:B *198:44 0.000106394
12 *147:8 *417:DIODE 5.05437e-05
13 *147:8 *2258:A 1.83756e-05
14 *147:10 *179:194 0.000211181
15 *147:10 *192:26 0.00065662
16 *147:10 *192:140 0.00112126
17 *147:26 *167:38 4.746e-05
18 *147:26 *167:44 2.12738e-05
19 *2251:A *147:26 2.34331e-05
20 *2259:A *147:18 0.00013229
21 *2259:A *147:26 5.90459e-05
22 *2259:B *147:26 0.000113363
23 *2361:D *147:10 0.000606989
24 *17:14 *147:26 0
25 *26:12 *147:10 0.000439519
26 *26:12 *147:18 1.97209e-05
27 *35:20 *2261:B 5.13714e-05
28 *35:20 *147:26 0
29 *100:46 *147:26 5.49297e-05
30 *100:75 *147:10 0.00015886
31 *100:75 *147:18 9.42924e-05
32 *125:26 *147:26 0.00216216
33 *127:26 *147:10 0.000180434
34 *127:26 *147:26 0.000532743
35 *134:224 *147:18 0.000148416
36 *134:224 *147:26 3.16636e-05
37 *140:14 *147:26 0
*RES
1 *2258:Y *147:8 26.13 
2 *147:8 *147:10 24.075 
3 *147:10 *147:18 5.285 
4 *147:18 *147:26 32.215 
5 *147:26 *2261:B 5.875 
6 *147:26 *423:DIODE 1.6 
7 *147:18 *2259:C 1.6 
8 *147:10 *420:DIODE 3.6 
*END

*D_NET *148 0.0153451
*CONN
*I *2260:A I *D sky130_fd_sc_hd__buf_1
*I *421:DIODE I *D sky130_fd_sc_hd__diode_2
*I *2259:X O *D sky130_fd_sc_hd__and3_1
*CAP
1 *2260:A 7.78932e-05
2 *421:DIODE 0
3 *2259:X 0.000676084
4 *148:20 0.000124954
5 *148:14 0.00251403
6 *148:12 0.00314306
7 *2260:A *2391:A 2.16917e-05
8 *2260:A *179:14 0.000123313
9 *148:12 *187:74 0.000628822
10 *148:14 *2324:A 0.000119756
11 *148:14 *162:20 0.00191796
12 *148:14 *172:214 0.000364174
13 *148:14 *178:74 0.00015267
14 *148:14 *178:95 0.000409263
15 *2217:A *148:14 8.55298e-05
16 *2259:B *148:12 2.98644e-05
17 *2346:D *148:14 0.00246642
18 *2361:RESET_B *148:14 0.000305595
19 *17:14 *148:12 0
20 *57:14 *2260:A 0.000121547
21 *57:14 *148:20 0.000136884
22 *106:68 *148:20 0.000136884
23 *127:26 *148:12 0.000277132
24 *134:113 *148:14 0.00137214
25 *134:224 *148:12 0.000121032
26 *136:16 *148:12 1.84109e-05
*RES
1 *2259:X *148:12 20.615 
2 *148:12 *148:14 57.72 
3 *148:14 *148:20 5.635 
4 *148:20 *421:DIODE 1.6 
5 *148:20 *2260:A 3.7 
*END

*D_NET *149 0.0199964
*CONN
*I *2263:C I *D sky130_fd_sc_hd__and3_1
*I *429:DIODE I *D sky130_fd_sc_hd__diode_2
*I *2262:X O *D sky130_fd_sc_hd__and3_1
*CAP
1 *2263:C 0.000101036
2 *429:DIODE 0
3 *2262:X 0.00526634
4 *149:32 0.000101036
5 *149:30 0.00526634
6 *2263:C *2263:A 4.66108e-05
7 *2263:C *150:10 5.28255e-05
8 *2263:C *181:194 8.34281e-06
9 *149:30 *334:DIODE 0.000179015
10 *149:30 *2272:B 1.41626e-05
11 *149:30 *152:30 0.00102682
12 *149:30 *153:22 0.000476269
13 *149:30 *177:104 0.000102102
14 *149:30 *182:46 4.99619e-05
15 *149:30 *191:52 0.000126376
16 *149:30 *195:72 0.00146456
17 *149:30 *198:68 0.000289459
18 *149:30 *206:46 0.000158482
19 *149:30 *209:14 0.000210801
20 *149:30 *209:142 0
21 *2218:B *149:30 0.000288113
22 *2357:D *149:30 0.00166652
23 *2365:RESET_B *149:30 7.06865e-05
24 *19:10 *149:30 0.000376068
25 *75:28 *149:30 0.000236869
26 *96:46 *149:30 0.000272471
27 *97:24 *149:30 0.00116169
28 *101:26 *149:30 0
29 *120:18 *149:30 2.18209e-05
30 *122:37 *149:30 0.000247199
31 *127:26 *149:30 0.000252352
32 *138:28 *149:30 0.000462072
*RES
1 *2262:X *149:30 48.6955 
2 *149:30 *149:32 2 
3 *149:32 *429:DIODE 1.6 
4 *149:32 *2263:C 2.8 
*END

*D_NET *150 0.00899114
*CONN
*I *2264:B I *D sky130_fd_sc_hd__and2_2
*I *2272:B I *D sky130_fd_sc_hd__and3_2
*I *2263:X O *D sky130_fd_sc_hd__and3_1
*CAP
1 *2264:B 0.00147043
2 *2272:B 0.000726787
3 *2263:X 7.48959e-05
4 *150:10 0.00227212
5 *2264:B *2207:A 0.000149693
6 *2264:B *151:22 2.7913e-05
7 *2264:B *154:10 0.000515982
8 *2264:B *177:124 1.82476e-05
9 *2264:B *183:150 0
10 *2264:B *216:12 0
11 *2272:B *2391:A 0.000341975
12 *2272:B *154:10 0.000595632
13 *2272:B *177:8 6.71425e-05
14 *2272:B *177:12 2.23253e-05
15 *2272:B *177:84 5.72678e-05
16 *2272:B *177:95 2.76225e-05
17 *2272:B *177:104 3.63701e-06
18 *2272:B *215:16 0.000159194
19 *150:10 *181:194 6.80137e-05
20 *2263:C *150:10 5.28255e-05
21 *2264:A *2264:B 0.00012398
22 *2365:RESET_B *2264:B 0.000342169
23 *2365:RESET_B *2272:B 9.044e-05
24 *81:14 *2264:B 0.00158831
25 *119:115 *2264:B 1.37385e-05
26 *129:41 *2264:B 7.64452e-05
27 *134:141 *2264:B 9.01939e-05
28 *149:30 *2272:B 1.41626e-05
*RES
1 *2263:X *150:10 5.1 
2 *150:10 *2272:B 16.815 
3 *150:10 *2264:B 35.985 
*END

*D_NET *151 0.025854
*CONN
*I *446:DIODE I *D sky130_fd_sc_hd__diode_2
*I *434:DIODE I *D sky130_fd_sc_hd__diode_2
*I *2266:A2 I *D sky130_fd_sc_hd__a21oi_2
*I *2267:C I *D sky130_fd_sc_hd__and3_1
*I *432:DIODE I *D sky130_fd_sc_hd__diode_2
*I *2265:B I *D sky130_fd_sc_hd__xor2_1
*I *438:DIODE I *D sky130_fd_sc_hd__diode_2
*I *2270:D I *D sky130_fd_sc_hd__and4_1
*I *2264:X O *D sky130_fd_sc_hd__and2_2
*CAP
1 *446:DIODE 0
2 *434:DIODE 0.000198693
3 *2266:A2 2.08101e-05
4 *2267:C 3.17372e-05
5 *432:DIODE 0
6 *2265:B 0.000114101
7 *438:DIODE 0.000253487
8 *2270:D 6.66108e-05
9 *2264:X 0.00107339
10 *151:121 0.000705221
11 *151:96 0.00157593
12 *151:71 0.00173647
13 *151:69 0.00218238
14 *151:39 0.00313357
15 *151:28 0.000660232
16 *151:22 0.00114866
17 *434:DIODE *435:DIODE 0.000119246
18 *434:DIODE *2266:A1 4.85381e-05
19 *434:DIODE *200:134 4.99782e-05
20 *438:DIODE *154:10 5.05981e-05
21 *438:DIODE *172:21 0
22 *438:DIODE *199:122 0.000230498
23 *438:DIODE *218:52 8.30853e-06
24 *2265:B *2265:A 0.000346165
25 *2266:A2 *435:DIODE 0
26 *2270:D *204:24 4.06414e-05
27 *151:22 *443:DIODE 0.0001249
28 *151:22 *444:DIODE 8.40269e-05
29 *151:22 *2270:A 0.00019532
30 *151:22 *184:144 2.32139e-05
31 *151:22 *184:155 0.000103554
32 *151:22 *195:132 0.000757313
33 *151:22 *204:24 3.25575e-05
34 *151:22 *211:68 4.77719e-05
35 *151:28 *2270:A 7.64349e-05
36 *151:28 *2270:B 3.64998e-06
37 *151:28 *2270:C 2.97406e-05
38 *151:28 *211:68 0.00019721
39 *151:39 *2271:A 0.000111192
40 *151:39 *2271:D 3.72725e-05
41 *151:39 *199:10 2.36783e-05
42 *151:39 *199:40 1.07563e-05
43 *151:39 *204:24 0
44 *151:69 *2280:B 0.00014025
45 *151:69 *154:10 8.65149e-05
46 *151:69 *172:46 0.000134538
47 *151:69 *175:168 0.000175526
48 *151:69 *203:50 0
49 *151:69 *204:30 0
50 *151:69 *204:45 4.77757e-05
51 *151:69 *204:57 8.23457e-05
52 *151:69 *211:38 3.1097e-05
53 *151:71 *154:10 4.0715e-05
54 *151:71 *218:52 3.93371e-05
55 *151:96 *2186:B 3.64998e-06
56 *151:96 *2193:B 8.35118e-05
57 *151:96 *2289:C 0.000455126
58 *151:96 *2381:A 0.000108219
59 *151:96 *153:22 0.000148548
60 *151:96 *175:16 8.41307e-05
61 *151:96 *175:24 5.07579e-05
62 *151:96 *175:33 0.000310101
63 *151:96 *183:12 8.4465e-05
64 *151:96 *183:51 0
65 *151:96 *183:101 0
66 *151:96 *190:88 0
67 *151:96 *199:122 3.00355e-05
68 *151:96 *199:142 0.000283752
69 *151:96 *213:12 0
70 *151:96 *218:52 0.000695217
71 *151:121 *2266:A1 4.98818e-05
72 *151:121 *2287:B 5.1843e-05
73 *151:121 *200:78 0.000101358
74 *151:121 *200:134 3.23284e-05
75 *374:DIODE *151:69 0.000110299
76 *2264:A *151:22 5.83121e-06
77 *2264:B *151:22 2.7913e-05
78 *2352:D *151:121 0.000197826
79 *21:22 *2265:B 0.00010068
80 *33:26 *151:69 0.000266361
81 *36:30 *2265:B 0.000383046
82 *36:30 *151:96 7.4235e-05
83 *41:22 *151:96 0.000311659
84 *80:26 *151:69 0.000379682
85 *103:14 *151:96 0.000548692
86 *104:16 *151:22 0
87 *106:88 *151:22 1.80792e-05
88 *107:12 *151:96 0.00169868
89 *108:24 *151:69 0
90 *113:10 *151:22 0
91 *128:16 *151:39 0.00067135
92 *128:16 *151:69 0.00186012
93 *129:41 *2270:D 0
94 *129:41 *151:39 1.44809e-05
95 *129:41 *151:69 6.20999e-05
96 *134:141 *151:22 0.000118081
*RES
1 *2264:X *151:22 28.29 
2 *151:22 *151:28 4.19 
3 *151:28 *2270:D 4.395 
4 *151:28 *151:39 10.56 
5 *151:39 *151:69 49.94 
6 *151:69 *151:71 0.615 
7 *151:71 *438:DIODE 6.84 
8 *151:71 *151:96 45 
9 *151:96 *2265:B 6.19 
10 *151:96 *432:DIODE 1.6 
11 *151:69 *2267:C 4.12875 
12 *151:39 *151:121 9.695 
13 *151:121 *2266:A2 1.96 
14 *151:121 *434:DIODE 4.81 
15 *151:22 *446:DIODE 1.6 
*END

*D_NET *152 0.0194219
*CONN
*I *439:DIODE I *D sky130_fd_sc_hd__diode_2
*I *2268:A I *D sky130_fd_sc_hd__nor2_1
*I *2266:Y O *D sky130_fd_sc_hd__a21oi_2
*CAP
1 *439:DIODE 0
2 *2268:A 0.000251927
3 *2266:Y 0.00296341
4 *152:44 0.00129392
5 *152:30 0.00400541
6 *2268:A *2268:B 6.11868e-05
7 *2268:A *153:61 6.34651e-05
8 *152:30 *479:DIODE 6.71882e-05
9 *152:30 *2287:C 3.73067e-05
10 *152:30 *2314:A 3.09774e-05
11 *152:30 *154:10 1.97442e-05
12 *152:30 *158:24 0
13 *152:30 *163:14 0.000118081
14 *152:30 *171:66 0.000669564
15 *152:30 *181:194 0.000267526
16 *152:30 *185:30 0.000164679
17 *152:30 *186:117 0.000164679
18 *152:30 *201:67 0.00035035
19 *152:30 *209:43 0.000632659
20 *152:44 *153:61 3.1562e-06
21 *152:44 *171:34 0.000582897
22 *152:44 *171:41 1.87038e-05
23 *152:44 *171:66 1.3763e-05
24 *17:14 *152:44 0.000981573
25 *37:12 *152:30 8.34281e-06
26 *37:12 *152:44 0.00217457
27 *82:16 *152:30 0.000143171
28 *96:46 *152:30 0.000104857
29 *127:26 *152:30 0
30 *129:41 *152:30 1.89471e-05
31 *138:28 *152:30 0.00010251
32 *140:14 *152:44 0.000956233
33 *141:68 *152:30 0.0016025
34 *141:77 *152:30 0.000121643
35 *141:92 *152:30 0.000400106
36 *149:30 *152:30 0.00102682
*RES
1 *2266:Y *152:30 39.2843 
2 *152:30 *152:44 37.645 
3 *152:44 *2268:A 6.13 
4 *152:44 *439:DIODE 1.6 
*END

*D_NET *153 0.0177713
*CONN
*I *442:DIODE I *D sky130_fd_sc_hd__diode_2
*I *440:DIODE I *D sky130_fd_sc_hd__diode_2
*I *2268:B I *D sky130_fd_sc_hd__nor2_1
*I *2269:B I *D sky130_fd_sc_hd__xor2_1
*I *2267:X O *D sky130_fd_sc_hd__and3_1
*CAP
1 *442:DIODE 0
2 *440:DIODE 0
3 *2268:B 0.000148549
4 *2269:B 9.26434e-06
5 *2267:X 0.00332874
6 *153:61 0.00225976
7 *153:30 0.0022838
8 *153:22 0.00349206
9 *153:22 *2193:B 0.000169575
10 *153:22 *2380:A 4.31915e-05
11 *153:22 *2381:A 3.23861e-05
12 *153:22 *166:66 7.93729e-05
13 *153:22 *175:16 8.41307e-05
14 *153:22 *195:72 0.000462664
15 *153:22 *199:142 0.000228857
16 *153:22 *204:82 7.80764e-05
17 *153:22 *204:112 0.000232403
18 *153:22 *218:34 9.23379e-06
19 *153:22 *218:52 0.00026219
20 *153:30 *184:54 0.000196664
21 *153:61 *526:DIODE 4.11678e-06
22 *153:61 *171:16 2.19562e-06
23 *153:61 *187:36 7.23533e-05
24 *153:61 *201:48 1.20052e-05
25 *2268:A *2268:B 6.11868e-05
26 *2268:A *153:61 6.34651e-05
27 *2357:RESET_B *153:61 0.000266164
28 *2359:D *2269:B 6.69608e-06
29 *2359:D *153:61 0.000742993
30 *17:14 *153:61 0.00104041
31 *75:38 *153:22 0
32 *101:26 *153:22 1.44785e-05
33 *114:10 *2268:B 3.05373e-05
34 *116:50 *2269:B 4.82919e-05
35 *116:50 *153:30 7.23635e-05
36 *131:18 *153:61 4.86703e-05
37 *132:28 *153:22 0
38 *134:8 *153:61 7.06865e-05
39 *136:50 *153:22 0.00017123
40 *140:14 *153:61 0.0010146
41 *149:30 *153:22 0.000476269
42 *151:96 *153:22 0.000148548
43 *152:44 *153:61 3.1562e-06
*RES
1 *2267:X *153:22 27.5167 
2 *153:22 *153:30 7.195 
3 *153:30 *2269:B 2.05 
4 *153:30 *153:61 42.965 
5 *153:61 *2268:B 7.7 
6 *153:61 *440:DIODE 1.6 
7 *153:22 *442:DIODE 1.6 
*END

*D_NET *154 0.009111
*CONN
*I *2273:A2 I *D sky130_fd_sc_hd__o21ba_1
*I *2270:X O *D sky130_fd_sc_hd__and4_1
*CAP
1 *2273:A2 0.000163984
2 *2270:X 4.87433e-05
3 *154:10 0.0026136
4 *154:8 0.00249836
5 *2273:A2 *2273:A1 5.12651e-05
6 *2273:A2 *189:28 0.000337228
7 *154:8 *2270:B 2.49909e-05
8 *154:8 *201:78 4.77757e-05
9 *154:8 *201:85 7.38676e-05
10 *154:10 *2270:B 4.05358e-05
11 *154:10 *2280:B 4.19797e-05
12 *154:10 *2280:D 3.86607e-05
13 *154:10 *169:102 0.000384172
14 *154:10 *169:160 0.00117251
15 *154:10 *172:46 0
16 *154:10 *177:12 0
17 *154:10 *204:57 0
18 *438:DIODE *154:10 5.05981e-05
19 *554:DIODE *154:10 6.28765e-05
20 *2264:B *154:10 0.000515982
21 *2272:B *154:10 0.000595632
22 *108:24 *154:10 6.2695e-05
23 *115:70 *154:10 6.35952e-05
24 *129:41 *154:10 3.52449e-05
25 *141:68 *154:10 3.97211e-05
26 *151:69 *154:10 8.65149e-05
27 *151:71 *154:10 4.0715e-05
28 *152:30 *154:10 1.97442e-05
*RES
1 *2270:X *154:8 4.74 
2 *154:8 *154:10 48.81 
3 *154:10 *2273:A2 7.17 
*END

*D_NET *155 0.00440096
*CONN
*I *2272:C I *D sky130_fd_sc_hd__and3_2
*I *2271:X O *D sky130_fd_sc_hd__and4_1
*CAP
1 *2272:C 0.000850804
2 *2271:X 0.000850804
3 *2272:C *470:DIODE 0.000146521
4 *2272:C *472:DIODE 0.00013521
5 *2272:C *2270:B 1.14169e-05
6 *2272:C *2271:C 8.52883e-05
7 *2272:C *2282:B 0.000249928
8 *2272:C *162:20 1.91597e-05
9 *2272:C *181:177 4.43871e-06
10 *2272:C *181:194 0.000406975
11 *2272:C *182:128 0.00106863
12 *2272:C *202:96 0.000132684
13 *2272:A *2272:C 8.40213e-05
14 *36:30 *2272:C 3.60648e-06
15 *103:34 *2272:C 0
16 *119:115 *2272:C 0.000351478
*RES
1 *2271:X *2272:C 29.46 
*END

*D_NET *156 0.0258662
*CONN
*I *2280:D I *D sky130_fd_sc_hd__and4_1
*I *469:DIODE I *D sky130_fd_sc_hd__diode_2
*I *461:DIODE I *D sky130_fd_sc_hd__diode_2
*I *2273:B1_N I *D sky130_fd_sc_hd__o21ba_1
*I *453:DIODE I *D sky130_fd_sc_hd__diode_2
*I *2274:B I *D sky130_fd_sc_hd__and2_1
*I *455:DIODE I *D sky130_fd_sc_hd__diode_2
*I *2277:C I *D sky130_fd_sc_hd__nand3_2
*I *457:DIODE I *D sky130_fd_sc_hd__diode_2
*I *2275:B I *D sky130_fd_sc_hd__nor2_1
*I *2272:X O *D sky130_fd_sc_hd__and3_2
*CAP
1 *2280:D 8.68758e-05
2 *469:DIODE 0
3 *461:DIODE 2.7563e-05
4 *2273:B1_N 0
5 *453:DIODE 0
6 *2274:B 0.000111987
7 *455:DIODE 0
8 *2277:C 0
9 *457:DIODE 0
10 *2275:B 0.000183795
11 *2272:X 0
12 *156:140 0.00064503
13 *156:101 0.00246351
14 *156:91 0.00328687
15 *156:71 0.00107235
16 *156:65 0.000798889
17 *156:49 0.00071673
18 *156:42 0.000133412
19 *156:38 0.00102151
20 *156:14 0.000623947
21 *156:4 0.000797376
22 *461:DIODE *203:68 4.41506e-05
23 *461:DIODE *204:63 7.14699e-05
24 *2274:B *2274:A 0.000100348
25 *2274:B *2278:A2 0.000386622
26 *2274:B *203:26 8.84295e-05
27 *2275:B *456:DIODE 4.82863e-05
28 *2275:B *182:136 2.50602e-05
29 *2275:B *203:103 3.96737e-05
30 *2280:D *2280:B 7.01359e-05
31 *156:14 *456:DIODE 8.23457e-05
32 *156:14 *205:68 0.000916817
33 *156:14 *215:16 6.92161e-05
34 *156:38 *180:86 0.00015356
35 *156:38 *180:107 0.000477429
36 *156:38 *182:128 1.65313e-05
37 *156:38 *205:64 0.000814212
38 *156:38 *205:68 1.18413e-05
39 *156:38 *215:16 1.91597e-05
40 *156:42 *205:64 0.000398224
41 *156:49 *203:68 4.41506e-05
42 *156:49 *204:63 8.35118e-05
43 *156:65 *2245:C 0.000214647
44 *156:65 *175:16 7.77156e-05
45 *156:65 *178:48 0.000500615
46 *156:65 *178:74 0.000129235
47 *156:65 *182:113 4.87939e-05
48 *156:65 *192:92 0.000421778
49 *156:65 *217:32 0.000118081
50 *156:71 *175:16 0.000179751
51 *156:71 *178:8 4.77769e-05
52 *156:71 *214:14 3.9232e-05
53 *156:91 *279:DIODE 0.000160342
54 *156:91 *175:16 4.77807e-05
55 *156:91 *178:8 4.77807e-05
56 *156:91 *178:10 8.80441e-05
57 *156:91 *179:104 0.000123484
58 *156:91 *199:142 0
59 *156:91 *203:26 0.000271125
60 *156:91 *205:14 0.000185597
61 *156:91 *205:64 0.000350688
62 *156:101 *2278:A2 0.000254556
63 *156:101 *2284:A 9.22206e-05
64 *156:101 *203:26 0.00164589
65 *156:101 *220:59 0.000110537
66 *156:140 *413:DIODE 0.000120655
67 *156:140 *2392:A 8.1871e-05
68 *156:140 *203:66 6.97943e-06
69 *2243:A *156:91 0.000370786
70 *2374:D *156:91 0.000175094
71 *2374:RESET_B *156:91 0.000623564
72 *16:10 *156:65 0.000175931
73 *16:10 *156:71 0.000199059
74 *103:14 *156:65 0.000797429
75 *115:70 *2280:D 7.44125e-05
76 *115:70 *156:140 0.000123225
77 *130:46 *156:14 0.000918113
78 *132:28 *156:38 9.40887e-05
79 *132:28 *156:42 0.000398905
80 *132:28 *156:65 0.000580742
81 *154:10 *2280:D 3.86607e-05
*RES
1 *2272:X *156:4 1.6 
2 *156:4 *156:14 17.005 
3 *156:14 *2275:B 4.045 
4 *156:14 *457:DIODE 1.6 
5 *156:4 *156:38 13.31 
6 *156:38 *156:42 6.695 
7 *156:42 *2277:C 1.6 
8 *156:42 *156:49 0.795 
9 *156:49 *156:65 26.52 
10 *156:65 *156:71 5.885 
11 *156:71 *156:91 30.95 
12 *156:91 *156:101 37.6 
13 *156:101 *455:DIODE 1.6 
14 *156:101 *2274:B 5.875 
15 *156:71 *453:DIODE 1.6 
16 *156:65 *2273:B1_N 3.6 
17 *156:49 *461:DIODE 2.395 
18 *156:38 *156:140 8.315 
19 *156:140 *469:DIODE 1.6 
20 *156:140 *2280:D 7.265 
*END

*D_NET *157 0.00893364
*CONN
*I *2278:A2 I *D sky130_fd_sc_hd__o21a_1
*I *2276:A I *D sky130_fd_sc_hd__nor2_1
*I *2274:X O *D sky130_fd_sc_hd__and2_1
*CAP
1 *2278:A2 0.00204457
2 *2276:A 0.000430835
3 *2274:X 0
4 *157:4 0.00247541
5 *2276:A *2178:D_N 7.18893e-05
6 *2276:A *179:118 0.000109036
7 *2276:A *188:42 9.49193e-05
8 *2276:A *189:60 3.69049e-05
9 *2276:A *189:64 0.000159179
10 *2278:A2 *2278:A1 4.99619e-05
11 *2278:A2 *159:24 0.000387772
12 *2278:A2 *189:60 8.64599e-05
13 *2278:A2 *203:26 0.00118903
14 *2278:A2 *208:66 0.000340816
15 *335:DIODE *2278:A2 0.000199002
16 *2220:C *2278:A2 1.61831e-05
17 *2274:B *2278:A2 0.000386622
18 *21:24 *2278:A2 0
19 *55:14 *2278:A2 0.000439661
20 *94:26 *2278:A2 3.59311e-05
21 *94:41 *2278:A2 0.0001249
22 *156:101 *2278:A2 0.000254556
*RES
1 *2274:X *157:4 1.6 
2 *157:4 *2276:A 13.625 
3 *157:4 *2278:A2 43.91 
*END

*D_NET *158 0.0222789
*CONN
*I *2276:B I *D sky130_fd_sc_hd__nor2_1
*I *458:DIODE I *D sky130_fd_sc_hd__diode_2
*I *2275:Y O *D sky130_fd_sc_hd__nor2_1
*CAP
1 *2276:B 1.46098e-05
2 *458:DIODE 0.00014176
3 *2275:Y 0.00780929
4 *158:24 0.00796566
5 *458:DIODE *223:DIODE 0
6 *2276:B *2178:A 8.52972e-05
7 *158:24 *2298:A 0.000109387
8 *158:24 *2367:CLK 7.63883e-05
9 *158:24 *2382:A 7.94016e-06
10 *158:24 *163:60 4.57523e-06
11 *158:24 *179:118 9.73303e-05
12 *158:24 *179:129 9.99375e-05
13 *158:24 *179:142 0.000814241
14 *158:24 *179:170 0.000362407
15 *158:24 *181:46 0.000136877
16 *158:24 *191:12 0.000333901
17 *158:24 *191:14 0.000130512
18 *158:24 *191:16 0.000116231
19 *158:24 *193:10 0.000274751
20 *158:24 *203:96 1.92979e-05
21 *158:24 *214:38 0.000107546
22 *2239:A *158:24 0.000118907
23 *2369:D *2276:B 8.52972e-05
24 *26:12 *158:24 0.00112705
25 *31:24 *158:24 0.000996047
26 *90:24 *158:24 0
27 *106:10 *158:24 0.000108771
28 *106:14 *158:24 0.000175493
29 *115:38 *158:24 0.000274751
30 *116:72 *158:24 0.000295241
31 *119:87 *158:24 1.00941e-05
32 *127:26 *158:24 0.000194387
33 *136:14 *158:24 0
34 *136:50 *158:24 0
35 *141:68 *158:24 0
36 *144:56 *158:24 0.000184913
37 *152:30 *158:24 0
*RES
1 *2275:Y *158:24 49.2295 
2 *158:24 *458:DIODE 5.235 
3 *158:24 *2276:B 4.395 
*END

*D_NET *159 0.016682
*CONN
*I *465:DIODE I *D sky130_fd_sc_hd__diode_2
*I *2279:B I *D sky130_fd_sc_hd__xnor2_1
*I *463:DIODE I *D sky130_fd_sc_hd__diode_2
*I *2278:B1 I *D sky130_fd_sc_hd__o21a_1
*I *2277:Y O *D sky130_fd_sc_hd__nand3_2
*CAP
1 *465:DIODE 0
2 *2279:B 0.000209927
3 *463:DIODE 8.30857e-05
4 *2278:B1 0
5 *2277:Y 0.00181015
6 *159:40 0.00106877
7 *159:24 0.00076999
8 *159:18 0.00335591
9 *463:DIODE *2278:A1 0.000188069
10 *2279:B *2279:A 0.000127108
11 *2279:B *189:60 0.000450429
12 *2279:B *206:14 3.97205e-05
13 *159:18 *2210:A 4.41506e-05
14 *159:18 *182:18 0.000264598
15 *159:18 *212:20 0.000702848
16 *159:18 *213:24 6.90254e-05
17 *159:24 *2278:A1 0.000122325
18 *159:40 *189:60 0.000249736
19 *159:40 *206:14 0.000340464
20 *159:40 *213:24 0.000651387
21 *159:40 *213:30 0.00013117
22 *2256:B *2279:B 1.32102e-05
23 *2278:A2 *159:24 0.000387772
24 *2371:D *2279:B 6.08538e-05
25 *2379:A *159:18 0.000128231
26 *21:24 *159:18 0.00132131
27 *21:24 *159:24 0.000857585
28 *51:16 *159:18 8.23457e-05
29 *60:14 *159:18 0.000767914
30 *60:14 *159:24 0.000285924
31 *80:16 *159:18 9.83921e-06
32 *94:26 *159:24 4.66826e-05
33 *96:20 *159:40 0.000670202
34 *117:24 *159:18 0.000610071
35 *119:24 *159:18 0.00024514
36 *119:26 *159:18 0.000120504
37 *119:38 *159:18 0.000164255
38 *121:12 *159:24 0.000111406
39 *121:12 *159:40 0.000119873
*RES
1 *2277:Y *159:18 39.9128 
2 *159:18 *159:24 19.655 
3 *159:24 *2278:B1 1.6 
4 *159:24 *463:DIODE 3.43 
5 *159:18 *159:40 23.15 
6 *159:40 *2279:B 7.42 
7 *159:40 *465:DIODE 1.6 
*END

*D_NET *160 0.00390742
*CONN
*I *2281:B I *D sky130_fd_sc_hd__xor2_1
*I *2280:X O *D sky130_fd_sc_hd__and4_1
*CAP
1 *2281:B 0.000548487
2 *2280:X 0.000548487
3 *2281:B *395:DIODE 1.56428e-05
4 *2281:B *506:DIODE 6.63307e-05
5 *2281:B *2280:C 0.000230429
6 *2281:B *2281:A 0.000352551
7 *2281:B *2299:A1 0.000119762
8 *2281:B *2299:A2 8.23457e-05
9 *2281:B *180:82 0.000119762
10 *2281:B *181:150 0.000414248
11 *2281:B *204:57 0.00015896
12 *2281:B *215:16 0.00051799
13 *2353:D *2281:B 1.88315e-05
14 *2368:D *2281:B 0.000248393
15 *2372:D *2281:B 4.36573e-06
16 *39:28 *2281:B 1.71207e-05
17 *115:70 *2281:B 0.000309202
18 *132:28 *2281:B 0.00013451
*RES
1 *2280:X *2281:B 24.255 
*END

*D_NET *161 0.0107219
*CONN
*I *2283:A I *D sky130_fd_sc_hd__buf_2
*I *2282:X O *D sky130_fd_sc_hd__or3_1
*CAP
1 *2283:A 0.000568371
2 *2282:X 0.00172091
3 *161:16 0.00228928
4 *2283:A *2336:A 0.000122202
5 *2283:A *169:160 0.00111093
6 *161:16 *2280:C 5.06809e-05
7 *161:16 *169:160 0.000455974
8 *161:16 *177:8 0.000170746
9 *161:16 *177:12 0.00067521
10 *161:16 *177:84 0.000164928
11 *161:16 *177:95 6.55336e-05
12 *161:16 *177:104 0.000143752
13 *161:16 *177:124 0.000298074
14 *161:16 *177:126 4.01778e-05
15 *161:16 *177:136 1.19928e-05
16 *161:16 *180:156 0.000300935
17 *161:16 *183:150 0.000118519
18 *161:16 *204:57 0.000527458
19 *161:16 *206:56 9.30717e-05
20 *161:16 *216:12 0.000743451
21 *554:DIODE *161:16 2.97122e-05
22 *2365:D *161:16 0.000120655
23 *2373:RESET_B *2283:A 2.20403e-05
24 *42:26 *161:16 0.000270051
25 *65:18 *2283:A 0.000595702
26 *115:70 *161:16 1.1561e-05
*RES
1 *2282:X *161:16 42.905 
2 *161:16 *2283:A 14.935 
*END

*D_NET *162 0.0153916
*CONN
*I *475:DIODE I *D sky130_fd_sc_hd__diode_2
*I *2285:A2 I *D sky130_fd_sc_hd__a21oi_1
*I *2284:Y O *D sky130_fd_sc_hd__inv_2
*CAP
1 *475:DIODE 7.78243e-05
2 *2285:A2 0
3 *2284:Y 0
4 *162:20 0.00123953
5 *162:8 0.00297321
6 *162:6 0.0018115
7 *475:DIODE *2285:B1 0.000123225
8 *475:DIODE *2391:A 4.35348e-05
9 *475:DIODE *215:16 0.000157172
10 *162:8 *2197:B 3.46328e-05
11 *162:8 *2337:A 4.13249e-05
12 *162:8 *2339:A 2.17728e-05
13 *162:8 *169:44 0.000664187
14 *162:8 *183:57 0.000133862
15 *162:8 *183:67 0.000113891
16 *162:8 *189:28 0.000192461
17 *162:8 *194:95 3.89366e-05
18 *162:8 *198:28 0
19 *162:8 *209:142 0.000110702
20 *162:8 *220:59 0
21 *162:20 *258:DIODE 8.52845e-05
22 *162:20 *178:74 0.000485819
23 *162:20 *203:96 0.000199734
24 *162:20 *215:16 0.00034189
25 *2272:A *162:20 0.000192125
26 *2272:C *162:20 1.91597e-05
27 *2345:D *162:8 0.0016501
28 *73:16 *162:8 0
29 *101:26 *162:8 0.000259388
30 *116:50 *162:8 3.91614e-05
31 *119:24 *162:20 2.16389e-05
32 *119:44 *162:8 0.00158857
33 *119:87 *162:20 7.3664e-05
34 *134:161 *162:20 4.82863e-05
35 *134:175 *162:20 0.000262702
36 *145:12 *162:8 0.000428393
37 *148:14 *162:20 0.00191796
*RES
1 *2284:Y *162:6 3.6 
2 *162:6 *162:8 50.085 
3 *162:8 *162:20 31.725 
4 *162:20 *2285:A2 1.6 
5 *162:20 *475:DIODE 3.775 
*END

*D_NET *163 0.0267583
*CONN
*I *486:DIODE I *D sky130_fd_sc_hd__diode_2
*I *2289:B I *D sky130_fd_sc_hd__and3_1
*I *2291:B I *D sky130_fd_sc_hd__xnor2_1
*I *488:DIODE I *D sky130_fd_sc_hd__diode_2
*I *2287:Y O *D sky130_fd_sc_hd__nand3_2
*CAP
1 *486:DIODE 0
2 *2289:B 0.000253688
3 *2291:B 0.000228599
4 *488:DIODE 0
5 *2287:Y 0.00116978
6 *163:60 0.00593526
7 *163:24 0.00233191
8 *163:14 0.00895466
9 *2291:B *2291:A 0.000272085
10 *2291:B *182:136 0.000148084
11 *163:14 *2287:C 4.77719e-05
12 *163:14 *179:54 0.000230796
13 *163:14 *180:113 0.000738437
14 *163:14 *180:128 0.000108886
15 *163:14 *180:141 0.000187376
16 *163:14 *180:156 0.000108098
17 *163:24 *171:252 9.08126e-05
18 *163:24 *180:113 0.000454723
19 *163:24 *182:136 0.000649264
20 *163:60 *2281:A 0.000272168
21 *163:60 *2382:A 0.000546899
22 *163:60 *173:18 0.00159016
23 *163:60 *173:52 0.0012446
24 *2352:D *163:14 0.000131168
25 *2372:D *163:60 0.00015777
26 *2374:RESET_B *2289:B 0.000385564
27 *30:18 *163:60 0.000163206
28 *95:18 *163:24 0.000158297
29 *136:50 *163:60 5.46965e-05
30 *141:68 *163:60 2.08619e-05
31 *141:114 *163:60 0
32 *152:30 *163:14 0.000118081
33 *158:24 *163:60 4.57523e-06
*RES
1 *2287:Y *163:14 25.04 
2 *163:14 *163:24 31.285 
3 *163:24 *488:DIODE 1.6 
4 *163:24 *2291:B 6.37 
5 *163:14 *163:60 16.3441 
6 *163:60 *2289:B 5.155 
7 *163:60 *486:DIODE 1.6 
*END

*D_NET *164 0.00499684
*CONN
*I *2289:C I *D sky130_fd_sc_hd__and3_1
*I *2288:X O *D sky130_fd_sc_hd__a21o_1
*CAP
1 *2289:C 0.00118249
2 *2288:X 0.00118249
3 *2289:C *263:DIODE 3.54463e-05
4 *2289:C *264:DIODE 0.000342594
5 *2289:C *2192:B 8.52972e-05
6 *2289:C *2241:A1 4.65119e-05
7 *2289:C *2288:B1 9.12494e-06
8 *2289:C *171:92 0
9 *2289:C *181:78 9.23578e-05
10 *2289:C *183:43 8.7069e-05
11 *2289:C *214:14 9.10613e-05
12 *2289:C *220:42 0.000122797
13 *2289:C *220:53 4.78292e-05
14 *2243:A *2289:C 2.69153e-05
15 *36:30 *2289:C 0.000158544
16 *51:16 *2289:C 0.000502163
17 *102:8 *2289:C 0.000529014
18 *151:96 *2289:C 0.000455126
*RES
1 *2288:X *2289:C 35.92 
*END

*D_NET *165 0.00727274
*CONN
*I *2290:A I *D sky130_fd_sc_hd__buf_1
*I *2289:X O *D sky130_fd_sc_hd__and3_1
*CAP
1 *2290:A 0.00150065
2 *2289:X 0.00150065
3 *2290:A *2187:B 0.000118589
4 *2290:A *2187:D_N 8.40269e-05
5 *2290:A *2337:A 0.000235839
6 *2290:A *174:26 0.000884823
7 *2290:A *174:28 0.000155928
8 *2290:A *186:36 3.31348e-05
9 *2290:A *220:53 0.000567476
10 *2367:RESET_B *2290:A 0.000337074
11 *2371:D *2290:A 0.000192502
12 *2374:RESET_B *2290:A 0.000117616
13 *17:24 *2290:A 0.000192502
14 *30:18 *2290:A 0.000188781
15 *74:10 *2290:A 1.50624e-05
16 *99:8 *2290:A 0.000972345
17 *105:18 *2290:A 0.000175733
*RES
1 *2289:X *2290:A 43.14 
*END

*D_NET *166 0.0236848
*CONN
*I *2293:A I *D sky130_fd_sc_hd__inv_2
*I *492:DIODE I *D sky130_fd_sc_hd__diode_2
*I *2299:B1 I *D sky130_fd_sc_hd__o31ai_2
*I *507:DIODE I *D sky130_fd_sc_hd__diode_2
*I *500:DIODE I *D sky130_fd_sc_hd__diode_2
*I *2296:B1 I *D sky130_fd_sc_hd__o21ai_2
*I *2292:Y O *D sky130_fd_sc_hd__o21ai_4
*CAP
1 *2293:A 1.52052e-05
2 *492:DIODE 4.16082e-05
3 *2299:B1 0.000142598
4 *507:DIODE 0.000173896
5 *500:DIODE 0
6 *2296:B1 0.000121789
7 *2292:Y 0.00035854
8 *166:90 0.00074477
9 *166:77 0.000903332
10 *166:66 0.00249356
11 *166:30 0.00189209
12 *166:10 0.00437573
13 *492:DIODE *201:71 1.56428e-05
14 *2293:A *203:120 4.22064e-05
15 *2296:B1 *201:22 0.000115614
16 *2299:B1 *506:DIODE 4.98216e-05
17 *2299:B1 *181:150 6.1357e-05
18 *166:10 *2292:B1 4.99619e-05
19 *166:10 *169:44 0.000339529
20 *166:10 *182:32 0
21 *166:10 *219:24 4.82919e-05
22 *166:30 *369:DIODE 8.33341e-05
23 *166:30 *186:36 1.7635e-05
24 *166:30 *188:42 0.000744642
25 *166:30 *214:38 0.000268625
26 *166:30 *219:24 0.000339027
27 *166:66 *2180:B 0.000137571
28 *166:66 *169:44 6.88414e-05
29 *166:66 *189:28 0.000877595
30 *166:66 *190:44 4.25189e-05
31 *166:66 *191:82 0
32 *166:66 *191:90 0.00023891
33 *166:66 *196:93 0.000517796
34 *166:66 *204:76 0.00038298
35 *166:66 *204:82 0.000537563
36 *166:66 *206:46 0.000267554
37 *166:77 *196:93 0.000108322
38 *166:77 *196:117 7.23602e-05
39 *166:90 *196:117 0.00137652
40 *166:90 *203:120 0.000303657
41 *412:DIODE *166:30 1.79174e-05
42 *2182:C *166:66 3.3625e-05
43 *2182:C *166:90 0.000190352
44 *2341:D *166:66 0.000200798
45 *2379:A *166:30 0
46 *96:20 *166:10 0.000166167
47 *96:20 *166:66 0.000140955
48 *105:18 *166:30 0.000487307
49 *130:46 *2293:A 5.07376e-05
50 *130:46 *166:66 0.000434558
51 *130:46 *166:77 0.000176647
52 *130:46 *166:90 0.00204252
53 *132:28 *166:30 0.000713059
54 *134:65 *166:66 7.44482e-05
55 *134:105 *166:66 0.000277503
56 *144:93 *507:DIODE 0.00022786
57 *153:22 *166:66 7.93729e-05
*RES
1 *2292:Y *166:10 11.6775 
2 *166:10 *166:30 25.167 
3 *166:30 *2296:B1 7.775 
4 *166:30 *500:DIODE 1.6 
5 *166:10 *166:66 46.7725 
6 *166:66 *507:DIODE 5.775 
7 *166:66 *166:77 2.145 
8 *166:77 *2299:B1 5.445 
9 *166:77 *166:90 24.585 
10 *166:90 *492:DIODE 4.05 
11 *166:90 *2293:A 4.215 
*END

*D_NET *167 0.0187483
*CONN
*I *499:DIODE I *D sky130_fd_sc_hd__diode_2
*I *2296:A2 I *D sky130_fd_sc_hd__o21ai_2
*I *2295:A2 I *D sky130_fd_sc_hd__a211o_1
*I *495:DIODE I *D sky130_fd_sc_hd__diode_2
*I *2294:Y O *D sky130_fd_sc_hd__inv_2
*CAP
1 *499:DIODE 3.41697e-05
2 *2296:A2 0
3 *2295:A2 0
4 *495:DIODE 0.00026337
5 *2294:Y 0.00112686
6 *167:48 0.00106789
7 *167:44 0.00107537
8 *167:38 0.00144273
9 *167:28 0.00226458
10 *499:DIODE *179:146 4.77757e-05
11 *167:28 *413:DIODE 0.000119762
12 *167:28 *2257:B1 0.000189844
13 *167:28 *197:24 0.000898419
14 *167:28 *202:44 9.37731e-05
15 *167:28 *217:26 0.000742814
16 *167:38 *217:18 0.00253762
17 *167:38 *218:52 0.000960825
18 *167:44 *2296:A1 4.12671e-05
19 *167:44 *179:146 1.53442e-05
20 *167:44 *201:22 0.000233573
21 *167:48 *201:22 3.18137e-05
22 *167:48 *218:34 0
23 *414:DIODE *167:28 4.66826e-05
24 *2188:C *167:28 0.000219129
25 *2251:C *167:48 0.000410224
26 *2257:A2 *167:28 1.31519e-05
27 *2379:A *167:28 0.000140783
28 *17:14 *167:38 0.000128611
29 *17:14 *167:44 4.99581e-05
30 *17:24 *167:44 4.77719e-05
31 *26:32 *167:28 0.000636032
32 *35:20 *167:48 0
33 *60:14 *167:28 9.91608e-06
34 *88:20 *167:38 0.00104163
35 *117:24 *167:28 0.000906353
36 *122:14 *495:DIODE 1.89685e-05
37 *122:14 *167:48 0.00010506
38 *122:22 *495:DIODE 0
39 *123:20 *167:28 0.00122013
40 *144:93 *167:28 0.000497382
41 *147:26 *167:38 4.746e-05
42 *147:26 *167:44 2.12738e-05
*RES
1 *2294:Y *167:28 42.215 
2 *167:28 *167:38 35.945 
3 *167:38 *167:44 7.115 
4 *167:44 *167:48 18.425 
5 *167:48 *495:DIODE 6.81 
6 *167:48 *2295:A2 3.6 
7 *167:44 *2296:A2 1.6 
8 *167:38 *499:DIODE 4.05 
*END

*D_NET *168 0.00373464
*CONN
*I *2298:A I *D sky130_fd_sc_hd__buf_1
*I *2297:X O *D sky130_fd_sc_hd__or3_1
*CAP
1 *2298:A 0.00056425
2 *2297:X 0.00056425
3 *2298:A *2297:C 6.62684e-05
4 *2298:A *169:34 8.56796e-05
5 *2298:A *193:10 0.00149882
6 *2239:A *2298:A 0.000312838
7 *131:18 *2298:A 0.000533148
8 *158:24 *2298:A 0.000109387
*RES
1 *2297:X *2298:A 26.04 
*END

*D_NET *169 0.0469029
*CONN
*I *2338:A I *D sky130_fd_sc_hd__inv_2
*I *545:DIODE I *D sky130_fd_sc_hd__diode_2
*I *2334:A I *D sky130_fd_sc_hd__inv_2
*I *541:DIODE I *D sky130_fd_sc_hd__diode_2
*I *2335:A I *D sky130_fd_sc_hd__inv_2
*I *542:DIODE I *D sky130_fd_sc_hd__diode_2
*I *519:DIODE I *D sky130_fd_sc_hd__diode_2
*I *2312:A I *D sky130_fd_sc_hd__clkbuf_8
*I *547:DIODE I *D sky130_fd_sc_hd__diode_2
*I *2340:A I *D sky130_fd_sc_hd__inv_2
*I *2336:A I *D sky130_fd_sc_hd__inv_2
*I *543:DIODE I *D sky130_fd_sc_hd__diode_2
*I *530:DIODE I *D sky130_fd_sc_hd__diode_2
*I *2301:A I *D sky130_fd_sc_hd__clkbuf_8
*I *508:DIODE I *D sky130_fd_sc_hd__diode_2
*I *2323:A I *D sky130_fd_sc_hd__buf_4
*I *546:DIODE I *D sky130_fd_sc_hd__diode_2
*I *2339:A I *D sky130_fd_sc_hd__inv_2
*I *544:DIODE I *D sky130_fd_sc_hd__diode_2
*I *2337:A I *D sky130_fd_sc_hd__inv_2
*I *2300:X O *D sky130_fd_sc_hd__clkbuf_8
*CAP
1 *2338:A 0.000122064
2 *545:DIODE 0
3 *2334:A 9.71884e-06
4 *541:DIODE 0
5 *2335:A 0.000140203
6 *542:DIODE 0
7 *519:DIODE 0
8 *2312:A 0
9 *547:DIODE 0
10 *2340:A 0.000111149
11 *2336:A 2.05932e-05
12 *543:DIODE 0
13 *530:DIODE 8.91735e-05
14 *2301:A 7.61917e-05
15 *508:DIODE 4.88783e-05
16 *2323:A 1.92299e-05
17 *546:DIODE 0
18 *2339:A 5.96674e-05
19 *544:DIODE 0
20 *2337:A 0.000100068
21 *2300:X 3.41513e-05
22 *169:254 0.000403386
23 *169:241 0.000434077
24 *169:228 0.000856686
25 *169:206 0.000552622
26 *169:202 0.00162614
27 *169:176 0.000760313
28 *169:160 0.00116512
29 *169:125 0.000642088
30 *169:108 0.000643225
31 *169:102 0.00057007
32 *169:100 0.00337434
33 *169:75 0.00189845
34 *169:44 0.00075203
35 *169:42 0.00071163
36 *169:40 0.00111574
37 *169:34 0.00274499
38 *169:24 0.00123326
39 *169:22 0.00107965
40 *169:8 0.00140325
41 *508:DIODE *170:12 0
42 *508:DIODE *179:82 3.86529e-05
43 *2301:A *219:26 3.45679e-05
44 *2337:A *198:28 0
45 *2339:A *209:142 4.90031e-05
46 *169:22 *180:113 0.000521227
47 *169:22 *213:118 0.000353604
48 *169:24 *171:8 0.000300412
49 *169:24 *180:113 0.000117667
50 *169:34 *2221:B1 6.44566e-05
51 *169:34 *171:8 8.49205e-05
52 *169:34 *171:16 0.000981363
53 *169:34 *179:170 1.73877e-05
54 *169:34 *193:10 1.73877e-05
55 *169:34 *193:50 0.000795002
56 *169:34 *214:68 0.00152263
57 *169:40 *381:DIODE 8.40269e-05
58 *169:40 *2242:B 0.000120655
59 *169:40 *213:58 0.000781998
60 *169:44 *182:32 0
61 *169:44 *189:28 0.000192461
62 *169:44 *198:28 0
63 *169:44 *209:142 0.00013834
64 *169:100 *250:DIODE 0.00026102
65 *169:100 *190:44 6.75314e-05
66 *169:100 *191:90 8.53113e-06
67 *169:102 *180:20 3.06743e-05
68 *169:102 *180:58 2.94928e-05
69 *169:108 *180:20 2.55962e-05
70 *169:125 *175:140 7.66103e-05
71 *169:125 *179:10 0.000124105
72 *169:125 *198:14 7.01359e-05
73 *169:125 *203:50 7.78482e-05
74 *169:125 *219:26 0.000152527
75 *169:160 *182:14 4.70338e-05
76 *169:160 *183:150 0
77 *169:160 *196:70 0
78 *169:160 *204:57 2.69443e-06
79 *169:176 *201:22 0.000261292
80 *169:202 *301:DIODE 9.21008e-05
81 *169:202 *181:10 0
82 *169:202 *213:118 0.000538698
83 *169:228 *2308:A 9.29176e-05
84 *169:228 *170:155 0.000164874
85 *169:228 *171:198 2.86265e-06
86 *169:228 *181:10 0
87 *169:228 *213:118 8.23753e-05
88 *169:241 *170:155 8.8266e-05
89 *169:241 *178:99 0
90 *169:254 *178:99 0
91 *299:DIODE *169:40 5.83121e-06
92 *2185:C *169:254 4.03082e-05
93 *2221:A2 *169:34 7.12477e-05
94 *2223:B *169:100 0.000153816
95 *2239:A *169:34 0.000574908
96 *2283:A *2336:A 0.000122202
97 *2283:A *169:160 0.00111093
98 *2290:A *2337:A 0.000235839
99 *2298:A *169:34 8.56796e-05
100 *2342:RESET_B *169:102 0.000842284
101 *2342:RESET_B *169:108 7.43938e-05
102 *2342:RESET_B *169:160 0.000301879
103 *2348:D *2338:A 5.062e-06
104 *2364:RESET_B *530:DIODE 7.00322e-05
105 *2364:RESET_B *2323:A 5.12969e-06
106 *2364:RESET_B *169:108 0.000345917
107 *2364:RESET_B *169:125 2.68464e-05
108 *2372:RESET_B *2335:A 0.000200615
109 *2372:RESET_B *169:206 0.000356946
110 *2373:RESET_B *2336:A 0.000110783
111 *2373:RESET_B *169:160 0.00132714
112 *2374:RESET_B *2337:A 0.000111909
113 *2375:RESET_B *2338:A 8.65961e-05
114 *28:28 *169:22 0
115 *28:28 *169:202 0
116 *29:12 *169:22 0
117 *41:22 *169:108 0.000382531
118 *41:22 *169:125 3.6355e-05
119 *48:8 *169:40 0.000111392
120 *48:16 *2339:A 0.00015639
121 *48:16 *169:40 8.78193e-05
122 *58:16 *2334:A 4.82919e-05
123 *73:18 *2339:A 0.00015639
124 *73:18 *169:40 0.000233374
125 *73:18 *169:75 8.40269e-05
126 *73:18 *169:100 0.00152603
127 *82:16 *169:241 8.53113e-06
128 *88:20 *2340:A 0.000160314
129 *88:20 *169:40 0.000182071
130 *88:20 *169:176 2.75252e-05
131 *96:20 *169:44 0.00013726
132 *96:46 *169:241 3.23391e-05
133 *96:46 *169:254 0.00015445
134 *104:34 *2334:A 4.82919e-05
135 *106:134 *169:228 0.000458082
136 *113:32 *169:40 0.000726122
137 *118:24 *2335:A 4.15966e-05
138 *131:18 *169:34 7.23602e-05
139 *131:18 *169:40 0.000267999
140 *131:44 *169:22 4.6618e-05
141 *134:8 *169:34 0.000133749
142 *134:8 *169:40 4.57947e-05
143 *134:65 *169:100 3.1562e-06
144 *134:75 *169:100 0.000734037
145 *134:105 *169:100 4.14009e-05
146 *134:224 *169:34 2.78732e-05
147 *138:28 *169:160 5.02126e-06
148 *154:10 *169:102 0.000384172
149 *154:10 *169:160 0.00117251
150 *161:16 *169:160 0.000455974
151 *162:8 *2337:A 4.13249e-05
152 *162:8 *2339:A 2.17728e-05
153 *162:8 *169:44 0.000664187
154 *166:10 *169:44 0.000339529
155 *166:66 *169:44 6.88414e-05
*RES
1 *2300:X *169:8 4.05 
2 *169:8 *169:22 17.435 
3 *169:22 *169:24 4.59 
4 *169:24 *169:34 37.625 
5 *169:34 *169:40 25.625 
6 *169:40 *169:42 2 
7 *169:42 *169:44 17.445 
8 *169:44 *2337:A 6.645 
9 *169:44 *544:DIODE 3.6 
10 *169:42 *2339:A 5.7 
11 *169:40 *169:75 0.795 
12 *169:75 *546:DIODE 1.6 
13 *169:75 *169:100 33.975 
14 *169:100 *169:102 10.305 
15 *169:102 *169:108 6.425 
16 *169:108 *2323:A 1.96 
17 *169:108 *169:125 12.04 
18 *169:125 *508:DIODE 6.47 
19 *169:125 *2301:A 2.755 
20 *169:102 *530:DIODE 4.74 
21 *169:100 *169:160 33.92 
22 *169:160 *543:DIODE 1.6 
23 *169:160 *2336:A 2.74 
24 *169:34 *169:176 9.695 
25 *169:176 *2340:A 3.955 
26 *169:176 *547:DIODE 1.6 
27 *169:24 *2312:A 1.6 
28 *169:22 *519:DIODE 1.6 
29 *169:8 *169:202 9.795 
30 *169:202 *169:206 7.625 
31 *169:206 *542:DIODE 1.6 
32 *169:206 *2335:A 4.495 
33 *169:202 *169:228 12.185 
34 *169:228 *541:DIODE 1.6 
35 *169:228 *169:241 4.115 
36 *169:241 *2334:A 4.05 
37 *169:241 *169:254 7.46 
38 *169:254 *545:DIODE 1.6 
39 *169:254 *2338:A 3.355 
*END

*D_NET *170 0.0420645
*CONN
*I *2307:A I *D sky130_fd_sc_hd__inv_2
*I *514:DIODE I *D sky130_fd_sc_hd__diode_2
*I *2302:A I *D sky130_fd_sc_hd__inv_2
*I *513:DIODE I *D sky130_fd_sc_hd__diode_2
*I *2306:A I *D sky130_fd_sc_hd__inv_2
*I *2310:A I *D sky130_fd_sc_hd__inv_2
*I *517:DIODE I *D sky130_fd_sc_hd__diode_2
*I *2308:A I *D sky130_fd_sc_hd__inv_2
*I *515:DIODE I *D sky130_fd_sc_hd__diode_2
*I *516:DIODE I *D sky130_fd_sc_hd__diode_2
*I *2309:A I *D sky130_fd_sc_hd__inv_2
*I *509:DIODE I *D sky130_fd_sc_hd__diode_2
*I *511:DIODE I *D sky130_fd_sc_hd__diode_2
*I *2304:A I *D sky130_fd_sc_hd__inv_2
*I *518:DIODE I *D sky130_fd_sc_hd__diode_2
*I *2311:A I *D sky130_fd_sc_hd__inv_2
*I *512:DIODE I *D sky130_fd_sc_hd__diode_2
*I *2305:A I *D sky130_fd_sc_hd__inv_2
*I *510:DIODE I *D sky130_fd_sc_hd__diode_2
*I *2303:A I *D sky130_fd_sc_hd__inv_2
*I *2301:X O *D sky130_fd_sc_hd__clkbuf_8
*CAP
1 *2307:A 0.00013305
2 *514:DIODE 0
3 *2302:A 0
4 *513:DIODE 7.38988e-05
5 *2306:A 0
6 *2310:A 5.79311e-05
7 *517:DIODE 0
8 *2308:A 8.29177e-05
9 *515:DIODE 0
10 *516:DIODE 0
11 *2309:A 0.000102835
12 *509:DIODE 0
13 *511:DIODE 0.000145982
14 *2304:A 0
15 *518:DIODE 4.03158e-05
16 *2311:A 0
17 *512:DIODE 0
18 *2305:A 8.90948e-05
19 *510:DIODE 0
20 *2303:A 0.000136768
21 *2301:X 7.05463e-05
22 *170:208 0.000631459
23 *170:189 0.00010706
24 *170:173 0.000342114
25 *170:155 0.00033809
26 *170:151 0.000798231
27 *170:135 0.00114354
28 *170:129 0.00314971
29 *170:121 0.00205651
30 *170:113 0.000257681
31 *170:100 0.000476205
32 *170:96 0.00238622
33 *170:76 0.000463458
34 *170:44 0.00151041
35 *170:42 0.00152387
36 *170:36 0.000233074
37 *170:34 0.00113443
38 *170:14 0.000837565
39 *170:12 0.00151326
40 *170:8 0.00165233
41 *2303:A *175:84 8.05319e-05
42 *2307:A *2391:A 2.08249e-05
43 *2308:A *171:198 2.30292e-05
44 *170:8 *219:26 0.000160641
45 *170:12 *179:82 0
46 *170:14 *175:84 0.000234349
47 *170:34 *211:14 0
48 *170:96 *185:30 0.000487881
49 *170:113 *2230:C 0.0001947
50 *170:121 *177:170 0.000493008
51 *170:129 *241:DIODE 0.000193028
52 *170:129 *2183:A 0.000155608
53 *170:129 *2183:B 7.82612e-05
54 *170:129 *2183:C 2.747e-05
55 *170:129 *176:65 0.00018955
56 *170:129 *176:123 0.000269939
57 *170:129 *205:70 2.747e-05
58 *170:129 *205:94 4.31127e-05
59 *170:129 *206:88 8.83683e-05
60 *170:135 *171:230 0.000132827
61 *170:151 *171:230 0.000808306
62 *170:173 *171:230 4.14369e-05
63 *508:DIODE *170:12 0
64 *599:DIODE *170:34 0
65 *599:DIODE *170:36 0
66 *599:DIODE *170:42 0
67 *2342:RESET_B *2303:A 0.000123492
68 *2343:RESET_B *170:76 0.000468639
69 *2348:D *2310:A 2.11084e-05
70 *2348:RESET_B *2309:A 9.47017e-05
71 *2348:RESET_B *170:135 0.000356094
72 *2350:RESET_B *170:44 8.5841e-05
73 *2364:D *170:96 5.61806e-05
74 *2366:RESET_B *170:96 0.00256407
75 *2369:D *170:34 1.92979e-05
76 *2369:RESET_B *170:76 8.98797e-05
77 *28:28 *170:34 0
78 *28:28 *170:96 0.000826345
79 *34:12 *2305:A 0.000241483
80 *34:12 *170:44 0.00298197
81 *41:24 *170:96 0
82 *56:16 *170:129 0.000319808
83 *57:14 *2307:A 0.000124471
84 *57:14 *170:96 0.0001947
85 *57:14 *170:208 0.000712091
86 *58:16 *2308:A 0.000200615
87 *58:16 *170:155 1.12578e-05
88 *60:10 *170:151 0.000164987
89 *60:10 *170:173 0.000278217
90 *65:8 *170:155 0.000159324
91 *67:26 *170:100 0.000235901
92 *82:16 *170:155 4.66108e-05
93 *104:34 *170:155 0.000805091
94 *109:22 *170:96 0.00073811
95 *109:22 *170:100 0.000685248
96 *109:22 *170:113 3.31204e-05
97 *109:28 *170:12 5.51245e-05
98 *109:28 *170:34 0.000518141
99 *109:28 *170:96 0.00025696
100 *110:10 *170:96 0
101 *110:10 *170:121 0.000494233
102 *119:115 *170:113 0.000269733
103 *119:115 *170:121 4.66108e-05
104 *119:119 *170:100 8.5242e-05
105 *119:119 *170:113 7.23533e-05
106 *119:133 *170:100 0.00102748
107 *125:12 *170:135 0.000131525
108 *125:12 *170:151 0.000513444
109 *126:12 *170:34 0.000257253
110 *126:40 *170:100 4.9968e-05
111 *128:16 *170:113 3.53405e-05
112 *128:16 *170:121 2.75145e-05
113 *136:50 *170:34 0
114 *169:228 *2308:A 9.29176e-05
115 *169:228 *170:155 0.000164874
116 *169:241 *170:155 8.8266e-05
*RES
1 *2301:X *170:8 5.085 
2 *170:8 *170:12 3.635 
3 *170:12 *170:14 10.11 
4 *170:14 *2303:A 4.48 
5 *170:14 *510:DIODE 1.6 
6 *170:12 *170:34 16.34 
7 *170:34 *170:36 1.38 
8 *170:36 *170:42 3.665 
9 *170:42 *170:44 31.845 
10 *170:44 *2305:A 3.775 
11 *170:44 *512:DIODE 1.6 
12 *170:42 *2311:A 1.6 
13 *170:36 *518:DIODE 4.05 
14 *170:34 *170:76 10.055 
15 *170:76 *2304:A 1.6 
16 *170:76 *511:DIODE 3.355 
17 *170:8 *170:96 44.225 
18 *170:96 *170:100 16.385 
19 *170:100 *509:DIODE 3.6 
20 *170:100 *170:113 5.39 
21 *170:113 *170:121 10.42 
22 *170:121 *170:129 33.62 
23 *170:129 *170:135 15.47 
24 *170:135 *2309:A 3.7 
25 *170:135 *516:DIODE 1.6 
26 *170:129 *170:151 9.795 
27 *170:151 *170:155 9.695 
28 *170:155 *515:DIODE 1.6 
29 *170:155 *2308:A 4.39 
30 *170:151 *170:173 7.97 
31 *170:173 *517:DIODE 1.6 
32 *170:173 *2310:A 2.665 
33 *170:121 *170:189 0.45 
34 *170:189 *2306:A 1.6 
35 *170:189 *513:DIODE 2.74 
36 *170:113 *2302:A 1.6 
37 *170:96 *170:208 6.66 
38 *170:208 *514:DIODE 1.6 
39 *170:208 *2307:A 3.7 
*END

*D_NET *171 0.0570889
*CONN
*I *527:DIODE I *D sky130_fd_sc_hd__diode_2
*I *2320:A I *D sky130_fd_sc_hd__inv_2
*I *520:DIODE I *D sky130_fd_sc_hd__diode_2
*I *2313:A I *D sky130_fd_sc_hd__inv_2
*I *2316:A I *D sky130_fd_sc_hd__inv_2
*I *523:DIODE I *D sky130_fd_sc_hd__diode_2
*I *2318:A I *D sky130_fd_sc_hd__inv_2
*I *525:DIODE I *D sky130_fd_sc_hd__diode_2
*I *522:DIODE I *D sky130_fd_sc_hd__diode_2
*I *2315:A I *D sky130_fd_sc_hd__inv_2
*I *529:DIODE I *D sky130_fd_sc_hd__diode_2
*I *524:DIODE I *D sky130_fd_sc_hd__diode_2
*I *2317:A I *D sky130_fd_sc_hd__inv_2
*I *2322:A I *D sky130_fd_sc_hd__inv_2
*I *2321:A I *D sky130_fd_sc_hd__inv_2
*I *528:DIODE I *D sky130_fd_sc_hd__diode_2
*I *2314:A I *D sky130_fd_sc_hd__inv_2
*I *521:DIODE I *D sky130_fd_sc_hd__diode_2
*I *2319:A I *D sky130_fd_sc_hd__inv_2
*I *526:DIODE I *D sky130_fd_sc_hd__diode_2
*I *2312:X O *D sky130_fd_sc_hd__clkbuf_8
*CAP
1 *527:DIODE 0
2 *2320:A 0
3 *520:DIODE 6.2475e-05
4 *2313:A 0
5 *2316:A 0
6 *523:DIODE 0
7 *2318:A 0
8 *525:DIODE 3.03222e-05
9 *522:DIODE 3.93837e-05
10 *2315:A 0
11 *529:DIODE 0.000215404
12 *524:DIODE 0
13 *2317:A 7.50723e-05
14 *2322:A 0
15 *2321:A 0
16 *528:DIODE 1.87438e-05
17 *2314:A 3.03602e-05
18 *521:DIODE 0
19 *2319:A 5.02911e-05
20 *526:DIODE 4.5884e-05
21 *2312:X 0.000106453
22 *171:252 0.000600427
23 *171:238 0.000613439
24 *171:230 0.00089874
25 *171:211 0.000928402
26 *171:198 0.00186398
27 *171:180 0.000345333
28 *171:170 0.00265568
29 *171:135 0.000510504
30 *171:120 0.000571771
31 *171:116 0.00123291
32 *171:92 0.00092271
33 *171:86 0.00373558
34 *171:66 0.00317636
35 *171:41 0.0012454
36 *171:34 0.00117711
37 *171:16 0.000928212
38 *171:10 0.00212437
39 *171:8 0.000832037
40 *520:DIODE *180:113 0.000118081
41 *522:DIODE *203:78 0.000195068
42 *528:DIODE *179:104 0.00012398
43 *528:DIODE *194:73 7.30505e-05
44 *171:8 *180:113 0.000456803
45 *171:10 *186:60 0.000569908
46 *171:10 *214:68 0.000576004
47 *171:16 *2221:B1 6.67166e-05
48 *171:16 *179:170 0.000157006
49 *171:16 *179:194 4.05149e-05
50 *171:16 *186:60 0.00150036
51 *171:16 *187:36 9.61344e-05
52 *171:16 *187:74 0.000258927
53 *171:16 *214:68 0.000925369
54 *171:66 *234:DIODE 0.000119251
55 *171:66 *2181:B 0.000114399
56 *171:66 *2202:A 0.000258101
57 *171:66 *200:48 0.000116933
58 *171:66 *202:24 0.000162214
59 *171:66 *202:96 0.000167892
60 *171:66 *203:78 0.00018955
61 *171:66 *209:43 0.000170361
62 *171:86 *202:24 0.000146377
63 *171:86 *212:12 0.000287967
64 *171:92 *179:104 0.000755321
65 *171:92 *194:73 0.000103809
66 *171:92 *199:142 0.000225175
67 *171:92 *205:28 0.000569498
68 *171:116 *178:10 4.28112e-06
69 *171:116 *178:16 0.00013593
70 *171:116 *198:14 0.00155881
71 *171:116 *219:26 0.00126085
72 *171:135 *203:50 0
73 *171:170 *354:DIODE 7.23602e-05
74 *171:170 *384:DIODE 0
75 *171:170 *2216:A 0
76 *171:170 *186:60 0.00146101
77 *171:170 *214:68 0.00111398
78 *171:170 *214:87 8.27984e-05
79 *171:180 *384:DIODE 0.000163204
80 *171:180 *2216:A 4.82919e-05
81 *171:180 *213:122 0.000343062
82 *171:198 *213:122 0.00141056
83 *171:198 *214:87 2.97004e-06
84 *171:198 *214:98 1.44259e-05
85 *171:252 *180:113 0.00029491
86 *2217:A *171:66 0.000137618
87 *2217:A *171:230 0.00109271
88 *2239:A *171:86 3.65883e-05
89 *2289:C *171:92 0
90 *2308:A *171:198 2.30292e-05
91 *2357:RESET_B *171:16 2.04748e-05
92 *2358:RESET_B *171:238 0.000123955
93 *2364:D *171:135 3.63576e-05
94 *2372:RESET_B *171:230 0.00037426
95 *2372:RESET_B *171:238 0.000159156
96 *2373:RESET_B *171:135 0.000144139
97 *2374:RESET_B *171:116 4.20673e-05
98 *16:10 *171:116 0.00013593
99 *21:24 *171:86 0.000286145
100 *21:24 *171:92 0.000117445
101 *30:18 *171:120 5.83121e-06
102 *30:18 *171:135 8.25446e-05
103 *34:8 *171:135 0.00081433
104 *35:30 *171:116 5.25834e-05
105 *35:30 *171:120 0.000452707
106 *35:30 *171:135 0.000122202
107 *51:16 *171:86 0
108 *51:16 *171:92 0
109 *55:20 *522:DIODE 0.000184192
110 *55:20 *171:66 0.000191226
111 *58:16 *171:198 0.000754775
112 *58:16 *171:211 6.43067e-05
113 *58:16 *171:230 0.000159947
114 *66:32 *171:135 0.000136788
115 *67:26 *171:180 4.85901e-05
116 *71:22 *529:DIODE 0.000229591
117 *71:22 *171:120 0.000341393
118 *94:20 *171:238 2.36679e-05
119 *94:20 *171:252 0
120 *94:26 *171:86 0.0013753
121 *94:26 *171:92 0.000502305
122 *95:18 *171:238 0
123 *95:18 *171:252 0.000222267
124 *95:24 *171:86 0
125 *96:46 *171:211 0
126 *97:24 *171:66 0.000109539
127 *97:24 *171:230 0.000157807
128 *104:34 *171:230 0.000161617
129 *106:134 *171:180 0.000198864
130 *106:134 *171:198 0.000114252
131 *117:24 *171:66 0.000460161
132 *117:24 *171:86 8.54618e-06
133 *125:12 *171:230 0.00024406
134 *126:20 *2317:A 3.45679e-05
135 *126:20 *171:135 4.39911e-06
136 *134:224 *171:16 1.34503e-05
137 *138:28 *171:86 0.00134327
138 *143:24 *171:116 0.000277715
139 *143:28 *171:116 6.07575e-06
140 *144:37 *171:66 0.000145394
141 *152:30 *2314:A 3.09774e-05
142 *152:30 *171:66 0.000669564
143 *152:44 *171:34 0.000582897
144 *152:44 *171:41 1.87038e-05
145 *152:44 *171:66 1.3763e-05
146 *153:61 *526:DIODE 4.11678e-06
147 *153:61 *171:16 2.19562e-06
148 *163:24 *171:252 9.08126e-05
149 *169:24 *171:8 0.000300412
150 *169:34 *171:8 8.49205e-05
151 *169:34 *171:16 0.000981363
152 *169:228 *171:198 2.86265e-06
153 *170:135 *171:230 0.000132827
154 *170:151 *171:230 0.000808306
155 *170:173 *171:230 4.14369e-05
*RES
1 *2312:X *171:8 7.845 
2 *171:8 *171:10 6.735 
3 *171:10 *171:16 28.865 
4 *171:16 *526:DIODE 2.05 
5 *171:16 *2319:A 2.47 
6 *171:10 *171:34 16.25 
7 *171:34 *521:DIODE 1.6 
8 *171:34 *171:41 0.45 
9 *171:41 *2314:A 2.215 
10 *171:41 *171:66 28.135 
11 *171:66 *171:86 27.0555 
12 *171:86 *171:92 23.645 
13 *171:92 *528:DIODE 2.74 
14 *171:92 *2321:A 1.6 
15 *171:86 *171:116 28.695 
16 *171:116 *171:120 4.86 
17 *171:120 *2322:A 1.6 
18 *171:120 *171:135 15.475 
19 *171:135 *2317:A 3.01 
20 *171:135 *524:DIODE 1.6 
21 *171:116 *529:DIODE 4.465 
22 *171:66 *2315:A 1.6 
23 *171:66 *522:DIODE 3.43 
24 *171:8 *171:170 20.76 
25 *171:170 *171:180 10.175 
26 *171:180 *525:DIODE 2.05 
27 *171:180 *2318:A 1.6 
28 *171:170 *171:198 26.525 
29 *171:198 *523:DIODE 1.6 
30 *171:198 *171:211 5.41 
31 *171:211 *2316:A 1.6 
32 *171:211 *171:230 25.51 
33 *171:230 *171:238 6.1 
34 *171:238 *171:252 13.78 
35 *171:252 *2313:A 1.6 
36 *171:252 *520:DIODE 2.74 
37 *171:238 *2320:A 1.6 
38 *171:230 *527:DIODE 1.6 
*END

*D_NET *172 0.0387225
*CONN
*I *539:DIODE I *D sky130_fd_sc_hd__diode_2
*I *2332:A I *D sky130_fd_sc_hd__inv_2
*I *538:DIODE I *D sky130_fd_sc_hd__diode_2
*I *2331:A I *D sky130_fd_sc_hd__inv_2
*I *531:DIODE I *D sky130_fd_sc_hd__diode_2
*I *2324:A I *D sky130_fd_sc_hd__inv_2
*I *540:DIODE I *D sky130_fd_sc_hd__diode_2
*I *2333:A I *D sky130_fd_sc_hd__inv_2
*I *2328:A I *D sky130_fd_sc_hd__inv_2
*I *535:DIODE I *D sky130_fd_sc_hd__diode_2
*I *534:DIODE I *D sky130_fd_sc_hd__diode_2
*I *533:DIODE I *D sky130_fd_sc_hd__diode_2
*I *2326:A I *D sky130_fd_sc_hd__inv_2
*I *2327:A I *D sky130_fd_sc_hd__inv_2
*I *532:DIODE I *D sky130_fd_sc_hd__diode_2
*I *2325:A I *D sky130_fd_sc_hd__inv_2
*I *537:DIODE I *D sky130_fd_sc_hd__diode_2
*I *2330:A I *D sky130_fd_sc_hd__inv_2
*I *2329:A I *D sky130_fd_sc_hd__inv_2
*I *536:DIODE I *D sky130_fd_sc_hd__diode_2
*I *2323:X O *D sky130_fd_sc_hd__buf_4
*CAP
1 *539:DIODE 0
2 *2332:A 0.000136141
3 *538:DIODE 0.000159532
4 *2331:A 1.36534e-05
5 *531:DIODE 0
6 *2324:A 3.06671e-05
7 *540:DIODE 0.000133197
8 *2333:A 0
9 *2328:A 0.000144453
10 *535:DIODE 0
11 *534:DIODE 0
12 *533:DIODE 0
13 *2326:A 0.000202862
14 *2327:A 2.73902e-05
15 *532:DIODE 0
16 *2325:A 0.000129784
17 *537:DIODE 0
18 *2330:A 7.96843e-05
19 *2329:A 9.83143e-05
20 *536:DIODE 3.69588e-05
21 *2323:X 0.000283056
22 *172:214 0.000270096
23 *172:208 0.000277981
24 *172:206 0.000384742
25 *172:188 0.00155422
26 *172:178 0.00201172
27 *172:162 0.000173829
28 *172:160 0.00139069
29 *172:133 0.000281287
30 *172:98 0.000534008
31 *172:96 0.000477841
32 *172:94 0.000206287
33 *172:90 0.000397164
34 *172:88 0.00170006
35 *172:64 0.00021305
36 *172:62 0.00242036
37 *172:50 0.00212953
38 *172:46 0.00215891
39 *172:21 0.00221617
40 *172:10 0.000398951
41 *536:DIODE *189:28 4.66108e-05
42 *540:DIODE *564:DIODE 0.000109466
43 *2324:A *178:95 0.000119756
44 *2329:A *218:52 1.88602e-05
45 *2330:A *185:84 5.16418e-05
46 *2330:A *202:44 0.000165135
47 *2331:A *200:48 4.66108e-05
48 *172:10 *180:58 2.48381e-05
49 *172:21 *218:52 6.55244e-06
50 *172:46 *2180:B 3.03684e-05
51 *172:46 *175:33 0.000237691
52 *172:46 *190:34 9.09197e-05
53 *172:46 *190:138 1.83847e-05
54 *172:46 *217:32 0.000325248
55 *172:62 *441:DIODE 0.000160826
56 *172:62 *174:156 3.59784e-05
57 *172:62 *174:165 0.000396546
58 *172:62 *186:36 0.000347321
59 *172:62 *188:20 0.000120655
60 *172:62 *201:67 0.000638665
61 *172:64 *185:84 0.000314539
62 *172:88 *181:10 0.00026349
63 *172:88 *181:12 0.000768385
64 *172:88 *181:30 9.42867e-05
65 *172:88 *185:84 0.00139504
66 *172:160 *184:54 0
67 *172:160 *209:39 0.000617454
68 *172:160 *209:57 0.000143334
69 *172:188 *564:DIODE 7.54743e-06
70 *172:214 *178:95 2.55587e-05
71 *438:DIODE *172:21 0
72 *565:DIODE *172:188 0.000105508
73 *2182:D *172:188 0.00037161
74 *2217:A *172:188 0.000436893
75 *2217:A *172:214 0.000336735
76 *2218:B *172:62 8.23457e-05
77 *2348:RESET_B *172:188 0.000235721
78 *2351:RESET_B *172:188 1.03323e-05
79 *2352:RESET_B *172:206 9.08531e-05
80 *2357:D *172:62 9.54899e-05
81 *2359:RESET_B *172:62 1.46828e-05
82 *2364:RESET_B *172:10 4.82863e-05
83 *2365:RESET_B *2328:A 0.000114858
84 *2365:RESET_B *172:162 9.76407e-06
85 *2365:RESET_B *172:178 0.00019974
86 *2365:RESET_B *172:206 3.95409e-05
87 *2376:RESET_B *172:46 0.000160654
88 *2376:RESET_B *172:50 9.06623e-05
89 *21:24 *172:206 8.51225e-05
90 *21:24 *172:208 6.22772e-05
91 *21:24 *172:214 0.000497344
92 *21:36 *172:188 0.000124119
93 *37:12 *538:DIODE 0.000233561
94 *51:16 *172:62 0
95 *71:22 *172:10 5.89229e-05
96 *73:12 *2325:A 5.72263e-05
97 *73:12 *2327:A 5.71366e-05
98 *73:12 *172:90 0.000157602
99 *73:12 *172:94 0.000148084
100 *73:12 *172:96 6.16204e-05
101 *73:12 *172:98 0.000399081
102 *73:12 *172:160 0.000253475
103 *74:8 *2326:A 0.000196364
104 *75:28 *172:94 8.23457e-05
105 *75:28 *172:96 4.66108e-05
106 *80:16 *172:46 8.07081e-05
107 *80:26 *172:10 0.00053718
108 *80:26 *172:21 0.000140431
109 *80:26 *172:46 0.000666078
110 *81:14 *540:DIODE 0.000172834
111 *82:16 *172:178 0.000217271
112 *90:24 *172:88 0.000150029
113 *94:20 *172:206 9.2951e-05
114 *94:20 *172:208 6.84082e-05
115 *94:20 *172:214 0.000496113
116 *95:18 *172:188 0.000218049
117 *95:24 *172:62 4.31189e-05
118 *96:14 *2330:A 8.78544e-05
119 *100:75 *2326:A 1.34594e-05
120 *106:38 *172:178 0.000819773
121 *106:38 *172:206 7.20899e-05
122 *106:51 *172:206 0.000263595
123 *106:62 *2331:A 4.66108e-05
124 *115:14 *172:133 0.000292059
125 *116:72 *172:133 0.000292059
126 *120:18 *2330:A 5.16418e-05
127 *120:18 *172:64 0.000268811
128 *131:44 *172:64 2.69493e-05
129 *131:44 *172:88 0.000149648
130 *144:37 *172:188 0.000195474
131 *146:20 *2332:A 0.000229889
132 *146:20 *172:62 0.000152084
133 *148:14 *2324:A 0.000119756
134 *148:14 *172:214 0.000364174
135 *151:69 *172:46 0.000134538
136 *154:10 *172:46 0
*RES
1 *2323:X *172:10 10.53 
2 *172:10 *536:DIODE 4.05 
3 *172:10 *172:21 1.7625 
4 *172:21 *2329:A 4.6275 
5 *172:21 *172:46 36.3675 
6 *172:46 *172:50 3.485 
7 *172:50 *172:62 30.595 
8 *172:62 *172:64 3.93 
9 *172:64 *2330:A 6.06 
10 *172:64 *537:DIODE 3.6 
11 *172:62 *172:88 18.68 
12 *172:88 *172:90 3.9 
13 *172:90 *172:94 2.1 
14 *172:94 *172:96 1.14 
15 *172:96 *172:98 7.005 
16 *172:98 *2325:A 4.33 
17 *172:98 *532:DIODE 1.6 
18 *172:96 *2327:A 2.515 
19 *172:94 *172:133 7.42 
20 *172:133 *2326:A 4.39 
21 *172:133 *533:DIODE 1.6 
22 *172:90 *534:DIODE 1.6 
23 *172:88 *172:160 19.6 
24 *172:160 *172:162 0.45 
25 *172:162 *535:DIODE 1.6 
26 *172:162 *2328:A 4.39 
27 *172:160 *172:178 10.11 
28 *172:178 *172:188 28.105 
29 *172:188 *2333:A 1.6 
30 *172:188 *540:DIODE 4.81 
31 *172:178 *172:206 7.025 
32 *172:206 *172:208 0.87 
33 *172:208 *172:214 11.525 
34 *172:214 *2324:A 2.74 
35 *172:214 *531:DIODE 1.6 
36 *172:208 *2331:A 4.05 
37 *172:206 *538:DIODE 5.775 
38 *172:50 *2332:A 6.51 
39 *172:46 *539:DIODE 1.6 
*END

*D_NET *173 0.0144071
*CONN
*I *2382:A I *D sky130_fd_sc_hd__clkbuf_16
*I *2383:A I *D sky130_fd_sc_hd__clkbuf_16
*I *2381:A I *D sky130_fd_sc_hd__clkbuf_16
*I *2380:A I *D sky130_fd_sc_hd__clkbuf_16
*I *2379:X O *D sky130_fd_sc_hd__clkbuf_16
*CAP
1 *2382:A 0.000499353
2 *2383:A 0.000508408
3 *2381:A 0.000393229
4 *2380:A 0.000329749
5 *2379:X 5.91388e-05
6 *173:52 0.00198068
7 *173:18 0.00221323
8 *173:14 0.00252231
9 *2381:A *2193:A 8.23457e-05
10 *2381:A *2193:B 8.23457e-05
11 *2381:A *2341:CLK 1.92979e-05
12 *2381:A *175:33 0.000147775
13 *2382:A *2281:A 1.32974e-05
14 *2383:A *180:107 1.12261e-05
15 *2383:A *205:68 1.83182e-05
16 *173:14 *2281:A 2.39315e-06
17 *173:18 *190:16 0.000161849
18 *2223:B *2380:A 0
19 *2223:B *173:18 0.000129951
20 *2239:A *173:14 9.22816e-06
21 *2368:D *173:14 1.88656e-05
22 *2368:D *173:52 0.000206046
23 *2377:D *173:14 2.05641e-05
24 *2377:D *173:18 0.000160724
25 *39:28 *2381:A 0.000116183
26 *51:16 *2380:A 2.24833e-05
27 *75:38 *2380:A 6.7718e-05
28 *75:38 *2381:A 2.85535e-05
29 *103:14 *2381:A 4.66108e-05
30 *107:12 *173:18 0.000116216
31 *127:26 *2383:A 0.000689214
32 *141:58 *173:52 0.000119325
33 *141:68 *2382:A 1.45731e-05
34 *141:114 *2382:A 2.24912e-05
35 *151:96 *2381:A 0.000108219
36 *153:22 *2380:A 4.31915e-05
37 *153:22 *2381:A 3.23861e-05
38 *158:24 *2382:A 7.94016e-06
39 *163:60 *2382:A 0.000546899
40 *163:60 *173:18 0.00159016
41 *163:60 *173:52 0.0012446
*RES
1 *2379:X *173:14 4.89963 
2 *173:14 *173:18 3.55267 
3 *173:18 *2380:A 5.0625 
4 *173:18 *2381:A 9.77943 
5 *173:14 *173:52 2.3636 
6 *173:52 *2383:A 6.20343 
7 *173:52 *2382:A 6.31237 
*END

*D_NET *174 0.0252651
*CONN
*I *613:DIODE I *D sky130_fd_sc_hd__diode_2
*I *2384:A I *D sky130_fd_sc_hd__clkinv_2
*I *575:DIODE I *D sky130_fd_sc_hd__diode_2
*I *548:DIODE I *D sky130_fd_sc_hd__diode_2
*I *2341:CLK I *D sky130_fd_sc_hd__dfrtp_4
*I *2357:CLK I *D sky130_fd_sc_hd__dfrtp_4
*I *555:DIODE I *D sky130_fd_sc_hd__diode_2
*I *2345:CLK I *D sky130_fd_sc_hd__dfrtp_4
*I *602:DIODE I *D sky130_fd_sc_hd__diode_2
*I *2371:CLK I *D sky130_fd_sc_hd__dfrtp_2
*I *578:DIODE I *D sky130_fd_sc_hd__diode_2
*I *2359:CLK I *D sky130_fd_sc_hd__dfrtp_4
*I *596:DIODE I *D sky130_fd_sc_hd__diode_2
*I *2367:CLK I *D sky130_fd_sc_hd__dfrtp_2
*I *586:DIODE I *D sky130_fd_sc_hd__diode_2
*I *2363:CLK I *D sky130_fd_sc_hd__dfrtp_4
*I *579:DIODE I *D sky130_fd_sc_hd__diode_2
*I *2360:CLK I *D sky130_fd_sc_hd__dfrtp_4
*I *2380:X O *D sky130_fd_sc_hd__clkbuf_16
*CAP
1 *613:DIODE 3.64054e-05
2 *2384:A 0
3 *575:DIODE 0
4 *548:DIODE 6.3701e-05
5 *2341:CLK 0.000189648
6 *2357:CLK 0
7 *555:DIODE 0
8 *2345:CLK 4.29165e-05
9 *602:DIODE 0
10 *2371:CLK 0
11 *578:DIODE 0.000142444
12 *2359:CLK 5.87687e-05
13 *596:DIODE 0
14 *2367:CLK 0.000137891
15 *586:DIODE 0
16 *2363:CLK 4.15735e-05
17 *579:DIODE 0
18 *2360:CLK 4.74594e-05
19 *2380:X 0
20 *174:173 0.000617711
21 *174:165 0.000721785
22 *174:156 0.000538286
23 *174:139 0.000197293
24 *174:126 0.000246945
25 *174:92 0.000510694
26 *174:72 0.000791165
27 *174:54 0.000667593
28 *174:41 0.000759497
29 *174:28 0.000749151
30 *174:26 0.0015041
31 *174:24 0.000678688
32 *174:18 0.000423773
33 *174:16 0.00048428
34 *174:10 0.0003951
35 *174:6 0.000109157
36 *174:4 8.51602e-05
37 *578:DIODE *185:84 0.000131881
38 *2341:CLK *250:DIODE 9.30717e-05
39 *2341:CLK *2186:D_N 4.66108e-05
40 *2341:CLK *175:33 5.41014e-05
41 *2359:CLK *201:48 0.000118081
42 *2363:CLK *197:18 7.60965e-05
43 *174:6 *209:142 0.000155491
44 *174:10 *209:142 0.000232116
45 *174:16 *182:32 0.000169173
46 *174:16 *189:28 7.32625e-05
47 *174:18 *189:28 0.00012103
48 *174:18 *206:14 0.000151117
49 *174:18 *206:46 2.28887e-05
50 *174:26 *185:84 0.000893354
51 *174:28 *2224:A 0
52 *174:28 *185:84 0.00013521
53 *174:41 *183:67 0.000196084
54 *174:54 *183:67 0.000832606
55 *174:92 *185:84 0.000858428
56 *174:126 *182:32 0.000123268
57 *174:156 *206:46 0.000155234
58 *174:156 *210:90 0.00015356
59 *174:165 *190:6 0.000121019
60 *174:165 *190:16 5.83121e-06
61 *174:165 *217:26 0.000191981
62 *262:DIODE *174:18 0.000191343
63 *2290:A *174:26 0.000884823
64 *2290:A *174:28 0.000155928
65 *2357:D *174:156 0.000118081
66 *2357:D *174:165 6.1357e-05
67 *2357:RESET_B *578:DIODE 0.000121541
68 *2357:RESET_B *174:165 9.17751e-05
69 *2359:D *2359:CLK 8.30403e-05
70 *2360:D *2360:CLK 6.488e-05
71 *2363:D *2363:CLK 7.60965e-05
72 *2363:RESET_B *2360:CLK 4.58925e-05
73 *2363:RESET_B *174:28 3.54125e-05
74 *2367:D *2367:CLK 8.88715e-05
75 *2367:D *174:72 0.00051855
76 *2369:D *174:54 0.000113137
77 *2371:D *174:18 6.31732e-05
78 *2371:D *174:24 0.000303291
79 *2371:RESET_B *174:18 0.000103042
80 *2376:RESET_B *174:126 0.000286635
81 *2377:D *174:173 0.000475197
82 *2381:A *2341:CLK 1.92979e-05
83 *17:24 *174:16 8.35118e-05
84 *17:24 *174:18 0.000921445
85 *17:24 *174:24 0.00028501
86 *26:12 *2367:CLK 7.47284e-05
87 *30:18 *2360:CLK 4.28112e-06
88 *30:18 *174:28 0.000453097
89 *39:28 *2341:CLK 0.000219471
90 *48:16 *548:DIODE 7.14699e-05
91 *48:16 *174:173 0.000265271
92 *51:16 *174:173 0.000460913
93 *55:14 *613:DIODE 0.000114492
94 *90:24 *174:92 0.000105649
95 *96:20 *174:16 0.000322784
96 *96:20 *174:126 0.000364361
97 *96:46 *174:126 0.000155234
98 *105:18 *578:DIODE 5.46798e-05
99 *105:18 *174:92 0.000433939
100 *113:22 *2345:CLK 1.31519e-05
101 *113:22 *174:156 0.000167606
102 *113:32 *2345:CLK 8.40213e-05
103 *113:32 *174:139 1.91597e-05
104 *113:32 *174:156 8.34281e-06
105 *116:50 *2345:CLK 2.67184e-05
106 *116:50 *174:139 1.91597e-05
107 *116:50 *174:156 0.000192125
108 *120:18 *174:28 6.49167e-05
109 *123:20 *613:DIODE 0.000116158
110 *131:18 *578:DIODE 2.03245e-05
111 *131:18 *2359:CLK 8.74538e-05
112 *131:18 *174:92 4.76263e-05
113 *134:39 *2341:CLK 2.39856e-05
114 *134:39 *174:6 7.79847e-05
115 *134:39 *174:10 0.000131077
116 *134:65 *2341:CLK 1.19928e-05
117 *158:24 *2367:CLK 7.63883e-05
118 *172:62 *174:156 3.59784e-05
119 *172:62 *174:165 0.000396546
*RES
1 *2380:X *174:4 1.6 
2 *174:4 *174:6 1.485 
3 *174:6 *174:10 4.175 
4 *174:10 *174:16 6.725 
5 *174:16 *174:18 10.8 
6 *174:18 *174:24 5.225 
7 *174:24 *174:26 10.815 
8 *174:26 *174:28 12.345 
9 *174:28 *2360:CLK 4.98 
10 *174:28 *174:41 3.83 
11 *174:41 *579:DIODE 1.6 
12 *174:41 *174:54 12.82 
13 *174:54 *2363:CLK 3.1 
14 *174:54 *586:DIODE 1.6 
15 *174:26 *174:72 10.385 
16 *174:72 *2367:CLK 7.955 
17 *174:72 *596:DIODE 1.6 
18 *174:24 *174:92 10.305 
19 *174:92 *2359:CLK 5.43 
20 *174:92 *578:DIODE 6.375 
21 *174:18 *2371:CLK 1.6 
22 *174:16 *602:DIODE 1.6 
23 *174:10 *174:126 8.225 
24 *174:126 *2345:CLK 3.115 
25 *174:126 *174:139 0.45 
26 *174:139 *555:DIODE 1.6 
27 *174:139 *174:156 9.22 
28 *174:156 *2357:CLK 1.6 
29 *174:156 *174:165 9.09 
30 *174:165 *174:173 12.235 
31 *174:173 *2341:CLK 9.74 
32 *174:173 *548:DIODE 2.395 
33 *174:165 *575:DIODE 1.6 
34 *174:6 *2384:A 1.6 
35 *174:4 *613:DIODE 6.98 
*END

*D_NET *175 0.0315206
*CONN
*I *2347:CLK I *D sky130_fd_sc_hd__dfrtp_4
*I *558:DIODE I *D sky130_fd_sc_hd__diode_2
*I *549:DIODE I *D sky130_fd_sc_hd__diode_2
*I *2354:CLK I *D sky130_fd_sc_hd__dfrtp_2
*I *568:DIODE I *D sky130_fd_sc_hd__diode_2
*I *2342:CLK I *D sky130_fd_sc_hd__dfrtp_4
*I *2362:CLK I *D sky130_fd_sc_hd__dfrtp_4
*I *583:DIODE I *D sky130_fd_sc_hd__diode_2
*I *589:DIODE I *D sky130_fd_sc_hd__diode_2
*I *2364:CLK I *D sky130_fd_sc_hd__dfrtp_2
*I *2343:CLK I *D sky130_fd_sc_hd__dfrtp_4
*I *551:DIODE I *D sky130_fd_sc_hd__diode_2
*I *598:DIODE I *D sky130_fd_sc_hd__diode_2
*I *2369:CLK I *D sky130_fd_sc_hd__dfrtp_4
*I *563:DIODE I *D sky130_fd_sc_hd__diode_2
*I *2350:CLK I *D sky130_fd_sc_hd__dfrtp_4
*I *561:DIODE I *D sky130_fd_sc_hd__diode_2
*I *2349:CLK I *D sky130_fd_sc_hd__dfrtp_4
*I *611:DIODE I *D sky130_fd_sc_hd__diode_2
*I *2353:CLK I *D sky130_fd_sc_hd__dfrtp_4
*I *567:DIODE I *D sky130_fd_sc_hd__diode_2
*I *2377:CLK I *D sky130_fd_sc_hd__dfrtp_4
*I *2381:X O *D sky130_fd_sc_hd__clkbuf_16
*CAP
1 *2347:CLK 9.89895e-05
2 *558:DIODE 0
3 *549:DIODE 0
4 *2354:CLK 7.04607e-05
5 *568:DIODE 0
6 *2342:CLK 2.6306e-05
7 *2362:CLK 3.15717e-05
8 *583:DIODE 0
9 *589:DIODE 3.69588e-05
10 *2364:CLK 0.000732639
11 *2343:CLK 8.2147e-05
12 *551:DIODE 0
13 *598:DIODE 0
14 *2369:CLK 7.50246e-05
15 *563:DIODE 0
16 *2350:CLK 0.000789826
17 *561:DIODE 0
18 *2349:CLK 0.000560803
19 *611:DIODE 0
20 *2353:CLK 0.000158618
21 *567:DIODE 0
22 *2377:CLK 0
23 *2381:X 0.000507196
24 *175:242 0.000162528
25 *175:219 0.000379542
26 *175:206 0.000351109
27 *175:195 0.00013284
28 *175:189 0.00025742
29 *175:185 0.000553339
30 *175:168 0.000752908
31 *175:153 0.000583996
32 *175:140 0.00102816
33 *175:124 8.2147e-05
34 *175:108 0.000572621
35 *175:92 0.000940682
36 *175:90 0.00114549
37 *175:86 0.000650077
38 *175:84 0.00103359
39 *175:75 0.000978723
40 *175:64 0.00117981
41 *175:33 0.000907363
42 *175:24 0.000795923
43 *175:18 0.000191079
44 *175:16 0.000988465
45 *2342:CLK *194:20 1.91597e-05
46 *2343:CLK *220:38 0.000157711
47 *2349:CLK *213:12 1.5186e-05
48 *2353:CLK *2281:A 1.42711e-05
49 *2353:CLK *186:100 4.87904e-05
50 *2362:CLK *211:10 2.68721e-05
51 *175:16 *178:8 0.000147446
52 *175:16 *178:10 4.87939e-05
53 *175:16 *178:48 0.000322253
54 *175:18 *178:8 0.000303285
55 *175:18 *213:24 3.63576e-05
56 *175:24 *178:8 0.000122821
57 *175:24 *213:24 0.000123977
58 *175:24 *213:182 0
59 *175:33 *250:DIODE 9.30717e-05
60 *175:33 *2186:B 0.000176852
61 *175:33 *213:182 0
62 *175:64 *190:44 0
63 *175:64 *204:82 0.000591569
64 *175:75 *213:12 1.45347e-05
65 *175:86 *203:50 0
66 *175:90 *180:20 0
67 *175:90 *203:50 0
68 *175:185 *211:38 0.000552763
69 *175:219 *211:10 1.01182e-05
70 *175:219 *211:60 0.000341174
71 *550:DIODE *2362:CLK 7.23533e-05
72 *550:DIODE *175:206 4.9968e-05
73 *550:DIODE *175:219 2.95721e-05
74 *552:DIODE *2343:CLK 0.000124471
75 *559:DIODE *175:219 0.000164679
76 *2223:B *2353:CLK 2.07338e-05
77 *2223:B *175:33 0.00106342
78 *2303:A *175:84 8.05319e-05
79 *2341:CLK *175:33 5.41014e-05
80 *2342:D *2342:CLK 4.66108e-05
81 *2342:RESET_B *2342:CLK 8.23457e-05
82 *2342:RESET_B *175:84 0.000121817
83 *2342:RESET_B *175:189 0.000174612
84 *2342:RESET_B *175:195 6.44879e-05
85 *2343:RESET_B *2343:CLK 8.43407e-05
86 *2343:RESET_B *2369:CLK 4.76437e-05
87 *2343:RESET_B *175:108 2.6348e-06
88 *2347:D *2347:CLK 6.97034e-05
89 *2349:D *2349:CLK 4.82863e-05
90 *2349:RESET_B *2349:CLK 0.000194749
91 *2350:D *2350:CLK 6.01418e-05
92 *2350:RESET_B *2350:CLK 0.000416652
93 *2350:RESET_B *175:92 0.000225094
94 *2350:RESET_B *175:108 0.00070812
95 *2353:D *2353:CLK 0.000211572
96 *2354:D *2354:CLK 0.000124007
97 *2354:RESET_B *2354:CLK 8.40269e-05
98 *2354:RESET_B *175:219 7.03276e-05
99 *2362:RESET_B *175:185 0.000181067
100 *2364:RESET_B *2364:CLK 0.0002627
101 *2366:RESET_B *175:185 9.05377e-05
102 *2366:RESET_B *175:242 8.30174e-05
103 *2369:D *2350:CLK 0.00012905
104 *2369:RESET_B *2369:CLK 4.90291e-05
105 *2381:A *175:33 0.000147775
106 *16:10 *175:16 6.54361e-06
107 *28:28 *175:219 0.000105271
108 *31:24 *175:219 1.0145e-05
109 *39:28 *2353:CLK 4.22837e-05
110 *39:28 *175:33 0.000249295
111 *41:22 *2364:CLK 4.70494e-05
112 *58:26 *175:219 8.5242e-05
113 *73:18 *175:168 3.93162e-05
114 *73:18 *175:185 0.000158539
115 *80:16 *175:33 0
116 *80:26 *175:86 0.000259682
117 *80:26 *175:90 0.000492905
118 *80:26 *175:140 0.000344347
119 *80:26 *175:153 0.000162355
120 *80:26 *175:168 0.000743979
121 *107:12 *175:33 5.77967e-05
122 *110:10 *175:185 0.000164686
123 *110:10 *175:242 0.000149377
124 *119:24 *2353:CLK 4.61833e-05
125 *119:24 *175:33 1.10435e-05
126 *123:20 *175:64 0.000143672
127 *126:12 *2362:CLK 0.000118513
128 *126:12 *175:206 4.31106e-05
129 *126:12 *175:219 0.00098855
130 *143:28 *589:DIODE 4.66108e-05
131 *151:69 *175:168 0.000175526
132 *151:96 *175:16 8.41307e-05
133 *151:96 *175:24 5.07579e-05
134 *151:96 *175:33 0.000310101
135 *153:22 *175:16 8.41307e-05
136 *156:65 *175:16 7.77156e-05
137 *156:71 *175:16 0.000179751
138 *156:91 *175:16 4.77807e-05
139 *169:125 *175:140 7.66103e-05
140 *170:14 *175:84 0.000234349
141 *172:46 *175:33 0.000237691
*RES
1 *2381:X *175:16 15.095 
2 *175:16 *175:18 2.865 
3 *175:18 *175:24 3.755 
4 *175:24 *2377:CLK 3.6 
5 *175:24 *175:33 20.25 
6 *175:33 *567:DIODE 3.6 
7 *175:33 *2353:CLK 7.68 
8 *175:18 *611:DIODE 1.6 
9 *175:16 *175:64 11.245 
10 *175:64 *2349:CLK 8.53 
11 *175:64 *175:75 2.865 
12 *175:75 *561:DIODE 1.6 
13 *175:75 *175:84 10.385 
14 *175:84 *175:86 3.165 
15 *175:86 *175:90 11.285 
16 *175:90 *175:92 2.175 
17 *175:92 *2350:CLK 11.635 
18 *175:92 *563:DIODE 1.6 
19 *175:90 *175:108 7.005 
20 *175:108 *2369:CLK 3.355 
21 *175:108 *598:DIODE 1.6 
22 *175:86 *175:124 2 
23 *175:124 *551:DIODE 1.6 
24 *175:124 *2343:CLK 4.48 
25 *175:84 *175:140 4.185 
26 *175:140 *2364:CLK 12.255 
27 *175:140 *175:153 2.145 
28 *175:153 *589:DIODE 4.05 
29 *175:153 *175:168 11.825 
30 *175:168 *583:DIODE 1.6 
31 *175:168 *175:185 11.03 
32 *175:185 *175:189 4.865 
33 *175:189 *175:195 3.155 
34 *175:195 *2362:CLK 4.98 
35 *175:195 *175:206 0.615 
36 *175:206 *2342:CLK 4.395 
37 *175:206 *175:219 13.835 
38 *175:219 *568:DIODE 1.6 
39 *175:219 *2354:CLK 3.355 
40 *175:189 *549:DIODE 1.6 
41 *175:185 *175:242 3.89 
42 *175:242 *558:DIODE 1.6 
43 *175:242 *2347:CLK 3.355 
*END

*D_NET *176 0.0238701
*CONN
*I *560:DIODE I *D sky130_fd_sc_hd__diode_2
*I *2348:CLK I *D sky130_fd_sc_hd__dfrtp_2
*I *564:DIODE I *D sky130_fd_sc_hd__diode_2
*I *2355:CLK I *D sky130_fd_sc_hd__dfrtp_2
*I *576:DIODE I *D sky130_fd_sc_hd__diode_2
*I *2358:CLK I *D sky130_fd_sc_hd__dfrtp_4
*I *582:DIODE I *D sky130_fd_sc_hd__diode_2
*I *2361:CLK I *D sky130_fd_sc_hd__dfrtp_4
*I *570:DIODE I *D sky130_fd_sc_hd__diode_2
*I *2351:CLK I *D sky130_fd_sc_hd__dfrtp_4
*I *557:DIODE I *D sky130_fd_sc_hd__diode_2
*I *2346:CLK I *D sky130_fd_sc_hd__dfrtp_4
*I *614:DIODE I *D sky130_fd_sc_hd__diode_2
*I *2385:A I *D sky130_fd_sc_hd__clkinvlp_4
*I *2382:X O *D sky130_fd_sc_hd__clkbuf_16
*CAP
1 *560:DIODE 0.000285368
2 *2348:CLK 0.000114673
3 *564:DIODE 0.000675924
4 *2355:CLK 0
5 *576:DIODE 0
6 *2358:CLK 4.39558e-05
7 *582:DIODE 0
8 *2361:CLK 0.000835114
9 *570:DIODE 0
10 *2351:CLK 0
11 *557:DIODE 0.000322073
12 *2346:CLK 0.000137707
13 *614:DIODE 0
14 *2385:A 0.0001651
15 *2382:X 0
16 *176:142 0.0012353
17 *176:123 0.00161265
18 *176:102 0.000313881
19 *176:82 0.00167669
20 *176:76 0.00111151
21 *176:74 9.75649e-05
22 *176:65 0.00101682
23 *176:63 0.0010819
24 *176:52 0.000288085
25 *176:30 0.00112467
26 *176:17 0.000708058
27 *176:13 0.000270086
28 *176:4 0.0001651
29 *560:DIODE *212:10 0.000163192
30 *2348:CLK *212:10 0.000125972
31 *2358:CLK *185:114 0.000122331
32 *2385:A *180:113 0.000147697
33 *176:17 *212:12 0.000162325
34 *176:30 *197:90 0.000198889
35 *176:52 *212:12 0.000651868
36 *176:63 *212:12 0.000144623
37 *176:74 *188:8 2.49909e-05
38 *176:82 *188:20 0.00152141
39 *176:102 *362:DIODE 6.54361e-06
40 *176:102 *2211:D 0.00014164
41 *176:102 *185:84 0.000101822
42 *176:102 *185:114 0.000124895
43 *176:102 *188:20 5.05981e-05
44 *176:102 *188:102 8.27307e-05
45 *176:142 *212:10 0
46 *176:142 *212:12 0
47 *365:DIODE *176:102 0.000151248
48 *540:DIODE *564:DIODE 0.000109466
49 *2348:D *2348:CLK 6.98546e-05
50 *2348:RESET_B *564:DIODE 3.87166e-05
51 *2348:RESET_B *176:142 0.00133296
52 *2351:RESET_B *564:DIODE 0.000186796
53 *2355:D *176:82 3.75882e-06
54 *2355:D *176:102 3.60365e-05
55 *2355:RESET_B *176:65 0.000156768
56 *2355:RESET_B *176:74 7.95969e-05
57 *2361:RESET_B *2361:CLK 0.000379135
58 *2361:RESET_B *176:82 7.50373e-05
59 *18:10 *176:82 0
60 *18:10 *176:102 0
61 *21:24 *176:17 0.000160658
62 *21:24 *176:52 0.000430548
63 *21:36 *564:DIODE 3.29947e-05
64 *66:32 *176:52 0.000204735
65 *66:32 *176:63 6.68025e-05
66 *66:32 *176:65 0.00105653
67 *66:32 *176:123 4.12775e-05
68 *90:24 *176:82 0.000158482
69 *94:16 *176:63 1.56261e-05
70 *94:20 *2346:CLK 2.80345e-05
71 *94:20 *176:30 0
72 *94:20 *176:52 1.10631e-05
73 *95:18 *564:DIODE 8.83817e-05
74 *95:18 *2346:CLK 0
75 *95:18 *176:30 0.000681324
76 *100:99 *557:DIODE 7.32575e-05
77 *100:99 *2346:CLK 0.000122808
78 *100:108 *557:DIODE 0.000159697
79 *100:127 *557:DIODE 0.000126454
80 *112:12 *2358:CLK 0.000158066
81 *112:12 *176:102 0.000113237
82 *170:129 *176:65 0.00018955
83 *170:129 *176:123 0.000269939
84 *172:188 *564:DIODE 7.54743e-06
*RES
1 *2382:X *176:4 1.6 
2 *176:4 *2385:A 4.12 
3 *176:4 *176:13 2 
4 *176:13 *176:17 3.89 
5 *176:17 *614:DIODE 1.6 
6 *176:17 *176:30 15.475 
7 *176:30 *2346:CLK 7.61 
8 *176:30 *557:DIODE 5.845 
9 *176:13 *176:52 8.01 
10 *176:52 *2351:CLK 3.6 
11 *176:52 *176:63 3.89 
12 *176:63 *176:65 19.08 
13 *176:65 *570:DIODE 1.6 
14 *176:65 *176:74 1.845 
15 *176:74 *176:76 2 
16 *176:76 *176:82 20.75 
17 *176:82 *2361:CLK 11.29 
18 *176:82 *582:DIODE 1.6 
19 *176:76 *176:102 9.11 
20 *176:102 *2358:CLK 3.085 
21 *176:102 *576:DIODE 1.6 
22 *176:74 *2355:CLK 1.6 
23 *176:63 *176:123 4.52 
24 *176:123 *564:DIODE 12.33 
25 *176:123 *176:142 19.58 
26 *176:142 *2348:CLK 4.465 
27 *176:142 *560:DIODE 6.88 
*END

*D_NET *177 0.019585
*CONN
*I *2370:CLK I *D sky130_fd_sc_hd__dfrtp_4
*I *600:DIODE I *D sky130_fd_sc_hd__diode_2
*I *592:DIODE I *D sky130_fd_sc_hd__diode_2
*I *2365:CLK I *D sky130_fd_sc_hd__dfrtp_4
*I *2372:CLK I *D sky130_fd_sc_hd__dfrtp_1
*I *604:DIODE I *D sky130_fd_sc_hd__diode_2
*I *615:DIODE I *D sky130_fd_sc_hd__diode_2
*I *2386:A I *D sky130_fd_sc_hd__clkinv_2
*I *2352:CLK I *D sky130_fd_sc_hd__dfrtp_4
*I *566:DIODE I *D sky130_fd_sc_hd__diode_2
*I *2366:CLK I *D sky130_fd_sc_hd__dfrtp_2
*I *594:DIODE I *D sky130_fd_sc_hd__diode_2
*I *2368:CLK I *D sky130_fd_sc_hd__dfrtp_1
*I *597:DIODE I *D sky130_fd_sc_hd__diode_2
*I *2344:CLK I *D sky130_fd_sc_hd__dfrtp_2
*I *2356:CLK I *D sky130_fd_sc_hd__dfrtp_4
*I *572:DIODE I *D sky130_fd_sc_hd__diode_2
*I *553:DIODE I *D sky130_fd_sc_hd__diode_2
*I *2383:X O *D sky130_fd_sc_hd__clkbuf_16
*CAP
1 *2370:CLK 6.99947e-05
2 *600:DIODE 0
3 *592:DIODE 0
4 *2365:CLK 0
5 *2372:CLK 0.00011751
6 *604:DIODE 0
7 *615:DIODE 0
8 *2386:A 9.03245e-05
9 *2352:CLK 0
10 *566:DIODE 0.000118831
11 *2366:CLK 0.000112747
12 *594:DIODE 0
13 *2368:CLK 0.000127815
14 *597:DIODE 0
15 *2344:CLK 0
16 *2356:CLK 8.5716e-05
17 *572:DIODE 0
18 *553:DIODE 0
19 *2383:X 0
20 *177:170 0.00134265
21 *177:157 0.00162069
22 *177:136 0.000474988
23 *177:126 0.000450041
24 *177:124 0.000574614
25 *177:108 0.00018716
26 *177:104 0.000295077
27 *177:95 8.9679e-05
28 *177:84 0.000226894
29 *177:68 0.000595487
30 *177:52 0.000987479
31 *177:50 0.0013424
32 *177:31 0.00049082
33 *177:23 0.000979605
34 *177:12 0.000943428
35 *177:8 0.000429238
36 *177:6 0.000142924
37 *2356:CLK *189:16 0.000118081
38 *2366:CLK *199:82 1.19928e-05
39 *2366:CLK *199:92 4.1745e-05
40 *2366:CLK *200:10 4.41506e-05
41 *2368:CLK *199:92 5.38957e-05
42 *2370:CLK *204:24 8.8266e-05
43 *2386:A *181:194 5.83121e-06
44 *2386:A *197:90 0.000193801
45 *177:31 *179:10 0.000162325
46 *177:52 *199:92 9.3782e-05
47 *177:68 *199:92 5.68129e-05
48 *177:108 *2263:A 0.000118081
49 *177:108 *181:194 0.000188868
50 *177:108 *197:90 0.000221339
51 *177:124 *216:12 2.75538e-05
52 *177:136 *472:DIODE 2.15594e-05
53 *177:136 *2282:A 4.66108e-05
54 *177:136 *182:136 8.65905e-05
55 *177:136 *185:78 6.02123e-05
56 *177:136 *202:96 7.06865e-05
57 *177:157 *2271:A 0.000344927
58 *177:157 *199:10 2.68526e-05
59 *177:157 *199:74 5.71907e-05
60 *177:170 *2230:B 2.03087e-05
61 *177:170 *2230:C 2.42236e-05
62 *177:170 *186:117 6.28843e-05
63 *177:170 *192:126 0
64 *177:170 *214:106 0
65 *345:DIODE *177:157 0.000120655
66 *554:DIODE *177:12 1.52184e-05
67 *2264:B *177:124 1.82476e-05
68 *2272:B *177:8 6.71425e-05
69 *2272:B *177:12 2.23253e-05
70 *2272:B *177:84 5.72678e-05
71 *2272:B *177:95 2.76225e-05
72 *2272:B *177:104 3.63701e-06
73 *2344:D *177:23 6.51658e-05
74 *2344:RESET_B *177:23 0.000269372
75 *2352:D *566:DIODE 9.02174e-05
76 *2356:D *2356:CLK 8.247e-05
77 *2365:D *177:126 6.1357e-05
78 *2365:D *177:136 5.83121e-06
79 *2365:RESET_B *177:104 1.88466e-05
80 *2365:RESET_B *177:124 0.000178067
81 *2370:D *177:170 0
82 *41:28 *177:170 0
83 *42:26 *177:12 0.000140472
84 *52:12 *177:31 0.000163019
85 *55:20 *177:23 8.49205e-05
86 *109:16 *177:170 0
87 *109:20 *177:170 0
88 *109:22 *177:170 0
89 *110:10 *177:170 0.000501657
90 *112:10 *177:170 0
91 *119:87 *2372:CLK 8.88631e-05
92 *119:87 *177:136 7.22952e-05
93 *119:115 *177:136 5.83121e-06
94 *141:92 *177:157 8.72302e-05
95 *141:92 *177:170 0.000148267
96 *144:22 *177:126 0.000153073
97 *144:22 *177:136 0.000236846
98 *144:22 *177:157 0.000337268
99 *144:22 *177:170 0.000151574
100 *149:30 *177:104 0.000102102
101 *154:10 *177:12 0
102 *161:16 *177:8 0.000170746
103 *161:16 *177:12 0.00067521
104 *161:16 *177:84 0.000164928
105 *161:16 *177:95 6.55336e-05
106 *161:16 *177:104 0.000143752
107 *161:16 *177:124 0.000298074
108 *161:16 *177:126 4.01778e-05
109 *161:16 *177:136 1.19928e-05
110 *170:121 *177:170 0.000493008
*RES
1 *2383:X *177:6 3.6 
2 *177:6 *177:8 2.145 
3 *177:8 *177:12 10.01 
4 *177:12 *553:DIODE 1.6 
5 *177:12 *177:23 8.85 
6 *177:23 *177:31 10.48 
7 *177:31 *572:DIODE 1.6 
8 *177:31 *2356:CLK 3.43 
9 *177:23 *2344:CLK 1.6 
10 *177:8 *177:50 2 
11 *177:50 *177:52 9.075 
12 *177:52 *597:DIODE 1.6 
13 *177:52 *2368:CLK 3.7 
14 *177:50 *177:68 5.28 
15 *177:68 *594:DIODE 1.6 
16 *177:68 *2366:CLK 3.7 
17 *177:6 *177:84 2.145 
18 *177:84 *566:DIODE 5.085 
19 *177:84 *177:95 0.87 
20 *177:95 *2352:CLK 3.6 
21 *177:95 *177:104 1.89 
22 *177:104 *177:108 5.21 
23 *177:108 *2386:A 3.43 
24 *177:108 *615:DIODE 1.6 
25 *177:104 *177:124 6.44 
26 *177:124 *177:126 2.52 
27 *177:126 *177:136 10.42 
28 *177:136 *604:DIODE 1.6 
29 *177:136 *2372:CLK 3.7 
30 *177:126 *2365:CLK 1.6 
31 *177:124 *177:157 8.73 
32 *177:157 *592:DIODE 1.6 
33 *177:157 *177:170 30.34 
34 *177:170 *600:DIODE 1.6 
35 *177:170 *2370:CLK 3.01 
*END

*D_NET *178 0.0284586
*CONN
*I *2189:A I *D sky130_fd_sc_hd__xnor2_1
*I *608:DIODE I *D sky130_fd_sc_hd__diode_2
*I *2375:CLK I *D sky130_fd_sc_hd__dfrtp_4
*I *258:DIODE I *D sky130_fd_sc_hd__diode_2
*I *2376:CLK I *D sky130_fd_sc_hd__dfrtp_4
*I *610:DIODE I *D sky130_fd_sc_hd__diode_2
*I *2374:CLK I *D sky130_fd_sc_hd__dfrtp_4
*I *606:DIODE I *D sky130_fd_sc_hd__diode_2
*I *2373:CLK I *D sky130_fd_sc_hd__dfrtp_4
*I *605:DIODE I *D sky130_fd_sc_hd__diode_2
*I *2377:Q O *D sky130_fd_sc_hd__dfrtp_4
*CAP
1 *2189:A 0.000124134
2 *608:DIODE 2.96028e-05
3 *2375:CLK 1.91317e-05
4 *258:DIODE 5.71538e-05
5 *2376:CLK 2.98456e-05
6 *610:DIODE 0
7 *2374:CLK 0
8 *606:DIODE 8.05017e-05
9 *2373:CLK 2.81678e-05
10 *605:DIODE 0
11 *2377:Q 0.000514244
12 *178:99 0.00147172
13 *178:95 0.0023425
14 *178:85 0.00111722
15 *178:74 0.00130281
16 *178:52 6.04948e-05
17 *178:48 0.00171467
18 *178:34 0.000267735
19 *178:16 0.000256859
20 *178:10 0.000540856
21 *178:8 0.0011511
22 *2189:A *206:88 0
23 *2373:CLK *219:26 8.23457e-05
24 *2376:CLK *221:14 2.76356e-05
25 *178:8 *213:24 0.000448719
26 *178:8 *214:14 0.000145855
27 *178:8 *214:22 0.00038896
28 *178:16 *219:26 0.000496193
29 *178:48 *2245:C 0.000214647
30 *178:48 *192:92 0.000788351
31 *178:52 *221:14 2.76356e-05
32 *178:74 *181:150 0.000154968
33 *178:74 *181:166 0.000324958
34 *178:74 *182:113 0.000501523
35 *178:74 *182:128 0.000519588
36 *178:74 *192:92 0.000598156
37 *2217:A *178:95 0.000482725
38 *2324:A *178:95 0.000119756
39 *2346:D *178:95 6.4201e-05
40 *2348:D *608:DIODE 6.69341e-05
41 *2348:D *2375:CLK 3.45588e-05
42 *2361:RESET_B *178:95 0.000673473
43 *2372:RESET_B *178:99 0.00115307
44 *2373:D *2373:CLK 4.66108e-05
45 *2374:D *178:10 7.27704e-06
46 *2374:D *178:34 4.77769e-05
47 *2374:D *178:48 7.71167e-06
48 *2374:RESET_B *178:10 2.02316e-05
49 *2374:RESET_B *178:16 0.000299846
50 *2374:RESET_B *178:34 4.66108e-05
51 *2375:RESET_B *608:DIODE 0.000152328
52 *2375:RESET_B *2375:CLK 8.65905e-05
53 *2376:D *2376:CLK 7.20899e-05
54 *2376:D *178:52 8.35106e-05
55 *2377:D *178:8 2.69153e-05
56 *2377:RESET_B *178:8 0.000124986
57 *35:30 *178:16 0.000462128
58 *36:30 *178:48 0.000120926
59 *36:30 *178:74 0.000147171
60 *49:12 *178:99 0
61 *82:18 *178:99 0.000663137
62 *100:108 *2189:A 1.52352e-05
63 *100:127 *2189:A 2.68464e-05
64 *101:26 *178:99 0.000105913
65 *103:14 *178:74 1.44779e-05
66 *106:34 *178:99 0.000598614
67 *106:108 *178:99 0.00157011
68 *106:134 *178:99 0
69 *119:8 *178:95 0.000232403
70 *122:45 *178:99 0.00038084
71 *132:28 *178:48 0.00107581
72 *134:113 *178:74 0.00026617
73 *141:58 *2189:A 9.08126e-05
74 *141:58 *178:85 0.000109198
75 *143:24 *606:DIODE 4.66108e-05
76 *143:24 *178:34 2.98958e-05
77 *145:12 *178:99 0
78 *148:14 *178:74 0.00015267
79 *148:14 *178:95 0.000409263
80 *156:65 *178:48 0.000500615
81 *156:65 *178:74 0.000129235
82 *156:71 *178:8 4.77769e-05
83 *156:91 *178:8 4.77807e-05
84 *156:91 *178:10 8.80441e-05
85 *162:20 *258:DIODE 8.52845e-05
86 *162:20 *178:74 0.000485819
87 *169:241 *178:99 0
88 *169:254 *178:99 0
89 *171:116 *178:10 4.28112e-06
90 *171:116 *178:16 0.00013593
91 *172:214 *178:95 2.55587e-05
92 *175:16 *178:8 0.000147446
93 *175:16 *178:10 4.87939e-05
94 *175:16 *178:48 0.000322253
95 *175:18 *178:8 0.000303285
96 *175:24 *178:8 0.000122821
*RES
1 *2377:Q *178:8 18.54 
2 *178:8 *178:10 2.655 
3 *178:10 *178:16 10.265 
4 *178:16 *605:DIODE 1.6 
5 *178:16 *2373:CLK 2.395 
6 *178:10 *178:34 4.445 
7 *178:34 *606:DIODE 2.74 
8 *178:34 *2374:CLK 1.6 
9 *178:8 *178:48 18.465 
10 *178:48 *178:52 2.795 
11 *178:52 *610:DIODE 1.6 
12 *178:52 *2376:CLK 2.395 
13 *178:48 *178:74 26.195 
14 *178:74 *258:DIODE 2.395 
15 *178:74 *178:85 3.38 
16 *178:85 *178:95 20.44 
17 *178:95 *178:99 40.355 
18 *178:99 *2375:CLK 2.395 
19 *178:99 *608:DIODE 3.085 
20 *178:85 *2189:A 5.88 
*END

*D_NET *179 0.0497604
*CONN
*I *482:DIODE I *D sky130_fd_sc_hd__diode_2
*I *2288:A1 I *D sky130_fd_sc_hd__a21o_1
*I *477:DIODE I *D sky130_fd_sc_hd__diode_2
*I *2286:A I *D sky130_fd_sc_hd__xor2_2
*I *2297:A I *D sky130_fd_sc_hd__or3_1
*I *501:DIODE I *D sky130_fd_sc_hd__diode_2
*I *498:DIODE I *D sky130_fd_sc_hd__diode_2
*I *2296:A1 I *D sky130_fd_sc_hd__o21ai_2
*I *2295:A1 I *D sky130_fd_sc_hd__a211o_1
*I *494:DIODE I *D sky130_fd_sc_hd__diode_2
*I *470:DIODE I *D sky130_fd_sc_hd__diode_2
*I *2282:A I *D sky130_fd_sc_hd__or3_1
*I *479:DIODE I *D sky130_fd_sc_hd__diode_2
*I *2287:A I *D sky130_fd_sc_hd__nand3_2
*I *476:DIODE I *D sky130_fd_sc_hd__diode_2
*I *2285:B1 I *D sky130_fd_sc_hd__a21oi_1
*I *2373:Q O *D sky130_fd_sc_hd__dfrtp_4
*CAP
1 *482:DIODE 0
2 *2288:A1 0
3 *477:DIODE 0
4 *2286:A 0.000439963
5 *2297:A 0
6 *501:DIODE 0.000120218
7 *498:DIODE 0
8 *2296:A1 0.000181533
9 *2295:A1 0.00049667
10 *494:DIODE 0.000122687
11 *470:DIODE 0.000191599
12 *2282:A 2.61242e-05
13 *479:DIODE 6.62189e-05
14 *2287:A 0
15 *476:DIODE 0
16 *2285:B1 0.000214609
17 *2373:Q 0
18 *179:194 0.00120082
19 *179:181 0.000798261
20 *179:170 0.00067513
21 *179:146 0.000353729
22 *179:142 0.00116461
23 *179:129 0.00102761
24 *179:118 0.000753936
25 *179:104 0.00211483
26 *179:84 0.0015614
27 *179:82 0.000804619
28 *179:54 0.000729782
29 *179:32 6.62189e-05
30 *179:30 0.000811454
31 *179:14 0.000548985
32 *179:10 0.00195099
33 *179:4 0.00210006
34 *470:DIODE *2282:B 6.38291e-05
35 *501:DIODE *187:20 0.000119762
36 *2285:B1 *2391:A 6.19801e-05
37 *2286:A *2286:B 0.000196137
38 *2286:A *180:113 0.000119762
39 *2295:A1 *2295:B1 5.4155e-06
40 *2295:A1 *182:46 2.19234e-05
41 *2295:A1 *218:34 5.062e-06
42 *2296:A1 *201:22 0.000232403
43 *179:10 *219:26 7.00322e-05
44 *179:14 *2391:A 0.000821367
45 *179:30 *200:78 7.89767e-05
46 *179:54 *2282:B 0.000139238
47 *179:54 *180:141 9.07355e-05
48 *179:54 *180:156 6.58339e-05
49 *179:54 *185:20 0.00118071
50 *179:54 *200:78 0.000124532
51 *179:82 *483:DIODE 0.000159714
52 *179:82 *203:12 0.000383685
53 *179:82 *203:26 0.000296133
54 *179:84 *483:DIODE 0.000112538
55 *179:84 *180:20 4.89362e-05
56 *179:84 *203:26 0.000150055
57 *179:104 *279:DIODE 0.000272903
58 *179:104 *2199:B1 0.000130967
59 *179:104 *2288:B1 0.000159722
60 *179:104 *180:20 4.89395e-05
61 *179:104 *194:55 4.42148e-05
62 *179:104 *194:61 9.32439e-05
63 *179:104 *194:73 1.07593e-05
64 *179:104 *194:75 0.000635166
65 *179:104 *203:26 0.000486629
66 *179:104 *205:14 0
67 *179:104 *205:28 0.000147459
68 *179:104 *208:40 2.98644e-05
69 *179:118 *188:42 0.00017765
70 *179:118 *189:70 0.000111293
71 *179:118 *193:10 3.79514e-05
72 *179:118 *194:75 0.00109061
73 *179:129 *188:42 0.000173161
74 *179:142 *188:42 0.00121269
75 *179:170 *187:36 0.000210626
76 *179:170 *187:74 2.03817e-05
77 *179:170 *192:26 0.000210949
78 *179:181 *187:74 0.000134756
79 *179:181 *192:26 0.000126927
80 *179:194 *180:113 0.000198939
81 *179:194 *186:60 0.00202384
82 *179:194 *187:74 0.000114643
83 *179:194 *192:26 0.00034164
84 *179:194 *192:140 0
85 *475:DIODE *2285:B1 0.000123225
86 *499:DIODE *179:146 4.77757e-05
87 *508:DIODE *179:82 3.86529e-05
88 *528:DIODE *179:104 0.00012398
89 *2227:A *2295:A1 7.39786e-05
90 *2227:C *2295:A1 0.000185303
91 *2243:A *179:82 0.000301354
92 *2243:A *179:104 0.000453123
93 *2259:B *501:DIODE 2.42043e-05
94 *2260:A *179:14 0.000123313
95 *2272:C *470:DIODE 0.000146521
96 *2276:A *179:118 0.000109036
97 *2343:RESET_B *179:82 0.000260457
98 *2350:D *179:104 0.000792794
99 *2357:RESET_B *179:170 6.27029e-05
100 *2360:RESET_B *179:104 8.64421e-05
101 *2360:RESET_B *179:118 1.53053e-05
102 *2361:D *179:194 0.001176
103 *2365:D *179:54 0.000101693
104 *2366:D *179:30 0.000199303
105 *2369:D *179:104 0.000115733
106 *2369:D *179:118 0.00105193
107 *17:24 *179:146 0.000302103
108 *26:12 *179:170 3.39944e-05
109 *26:12 *179:194 2.05661e-05
110 *31:24 *179:10 0.000515705
111 *31:24 *179:30 0.000185571
112 *34:8 *179:10 0.00345934
113 *34:8 *179:82 0
114 *41:24 *179:10 0
115 *47:12 *179:10 0
116 *52:12 *179:10 0.00127578
117 *52:12 *179:30 0.000371798
118 *52:12 *179:54 0.000128197
119 *57:14 *179:10 1.1561e-05
120 *66:32 *179:10 0.000137434
121 *66:32 *179:82 1.88602e-05
122 *70:12 *179:104 0.000495627
123 *71:22 *179:104 0.000112545
124 *100:46 *179:142 0.000142843
125 *100:46 *179:170 0.000183024
126 *103:34 *470:DIODE 6.71439e-05
127 *103:34 *179:54 8.08153e-06
128 *106:68 *179:10 0
129 *106:88 *179:30 0
130 *107:12 *179:104 0.000199021
131 *122:14 *2295:A1 0.000311668
132 *122:37 *494:DIODE 4.60012e-05
133 *127:26 *179:142 0.00036122
134 *127:26 *179:194 0.000252987
135 *134:224 *179:170 0.000119762
136 *136:16 *179:170 0.00070355
137 *147:10 *179:194 0.000211181
138 *152:30 *479:DIODE 6.71882e-05
139 *156:91 *179:104 0.000123484
140 *158:24 *179:118 9.73303e-05
141 *158:24 *179:129 9.99375e-05
142 *158:24 *179:142 0.000814241
143 *158:24 *179:170 0.000362407
144 *163:14 *179:54 0.000230796
145 *167:44 *2296:A1 4.12671e-05
146 *167:44 *179:146 1.53442e-05
147 *169:34 *179:170 1.73877e-05
148 *169:125 *179:10 0.000124105
149 *170:12 *179:82 0
150 *171:16 *179:170 0.000157006
151 *171:16 *179:194 4.05149e-05
152 *171:92 *179:104 0.000755321
153 *177:31 *179:10 0.000162325
154 *177:136 *2282:A 4.66108e-05
*RES
1 *2373:Q *179:4 1.6 
2 *179:4 *179:10 44.555 
3 *179:10 *179:14 9.695 
4 *179:14 *2285:B1 5.08 
5 *179:14 *476:DIODE 1.6 
6 *179:10 *179:30 8.01 
7 *179:30 *179:32 2 
8 *179:32 *2287:A 1.6 
9 *179:32 *479:DIODE 2.74 
10 *179:30 *179:54 19.435 
11 *179:54 *2282:A 4.05 
12 *179:54 *470:DIODE 7.05 
13 *179:4 *179:82 22.66 
14 *179:82 *179:84 1.485 
15 *179:84 *179:104 44.65 
16 *179:104 *179:118 23.19 
17 *179:118 *494:DIODE 5.085 
18 *179:118 *179:129 2.145 
19 *179:129 *2295:A1 10.53 
20 *179:129 *179:142 17.445 
21 *179:142 *179:146 5.21 
22 *179:146 *2296:A1 4.825 
23 *179:146 *498:DIODE 1.6 
24 *179:142 *179:170 20.92 
25 *179:170 *501:DIODE 5.085 
26 *179:170 *179:181 1.635 
27 *179:181 *2297:A 3.6 
28 *179:181 *179:194 29.69 
29 *179:194 *2286:A 7.945 
30 *179:194 *477:DIODE 1.6 
31 *179:84 *2288:A1 1.6 
32 *179:82 *482:DIODE 1.6 
*END

*D_NET *180 0.030903
*CONN
*I *504:DIODE I *D sky130_fd_sc_hd__diode_2
*I *2287:B I *D sky130_fd_sc_hd__nand3_2
*I *480:DIODE I *D sky130_fd_sc_hd__diode_2
*I *471:DIODE I *D sky130_fd_sc_hd__diode_2
*I *2282:B I *D sky130_fd_sc_hd__or3_1
*I *2286:B I *D sky130_fd_sc_hd__xor2_2
*I *478:DIODE I *D sky130_fd_sc_hd__diode_2
*I *2299:A1 I *D sky130_fd_sc_hd__o31ai_2
*I *2294:A I *D sky130_fd_sc_hd__inv_2
*I *493:DIODE I *D sky130_fd_sc_hd__diode_2
*I *483:DIODE I *D sky130_fd_sc_hd__diode_2
*I *2288:A2 I *D sky130_fd_sc_hd__a21o_1
*I *2374:Q O *D sky130_fd_sc_hd__dfrtp_4
*CAP
1 *504:DIODE 0
2 *2287:B 0.000177409
3 *480:DIODE 0
4 *471:DIODE 0
5 *2282:B 6.80124e-05
6 *2286:B 0.000178496
7 *478:DIODE 0
8 *2299:A1 0.000281213
9 *2294:A 2.4121e-05
10 *493:DIODE 0
11 *483:DIODE 4.27648e-05
12 *2288:A2 0
13 *2374:Q 0
14 *180:156 0.000615114
15 *180:141 0.000482431
16 *180:128 0.000155544
17 *180:113 0.00281563
18 *180:107 0.00327508
19 *180:86 0.000944718
20 *180:82 0.000166646
21 *180:67 0.000168421
22 *180:58 0.00165238
23 *180:20 0.0010443
24 *180:6 0.0026079
25 *2287:B *200:78 0.000141606
26 *2294:A *413:DIODE 8.23457e-05
27 *2299:A1 *506:DIODE 8.23457e-05
28 *2299:A1 *203:78 0.000194694
29 *2299:A1 *208:6 0.000218513
30 *180:20 *214:14 0.000275509
31 *180:58 *183:33 0.000150791
32 *180:58 *183:37 0.000338871
33 *180:58 *190:118 9.0336e-05
34 *180:58 *191:98 1.88337e-05
35 *180:58 *194:20 0.00037971
36 *180:58 *194:41 0.000173646
37 *180:58 *194:47 0.000337575
38 *180:58 *196:93 0.000176325
39 *180:58 *204:76 0.000292079
40 *180:58 *205:64 0.000483229
41 *180:58 *221:14 4.08633e-05
42 *180:67 *205:64 0.000159957
43 *180:82 *205:64 0.000198753
44 *180:86 *182:128 7.98967e-05
45 *180:107 *182:128 0.00118459
46 *180:107 *185:14 0.000110073
47 *180:107 *205:68 0
48 *180:113 *185:20 4.80182e-05
49 *180:128 *185:20 3.96284e-05
50 *180:141 *185:20 1.31297e-05
51 *180:156 *216:12 0.000302217
52 *414:DIODE *2294:A 8.23457e-05
53 *470:DIODE *2282:B 6.38291e-05
54 *520:DIODE *180:113 0.000118081
55 *2243:A *483:DIODE 0.000272252
56 *2243:A *180:20 8.52977e-05
57 *2272:C *2282:B 0.000249928
58 *2281:B *2299:A1 0.000119762
59 *2281:B *180:82 0.000119762
60 *2286:A *2286:B 0.000196137
61 *2286:A *180:113 0.000119762
62 *2342:RESET_B *180:20 0.000117283
63 *2352:D *2287:B 4.21518e-05
64 *2352:D *180:156 0.00034158
65 *2353:D *2299:A1 0.000196992
66 *2365:D *2282:B 7.90356e-06
67 *2365:RESET_B *180:156 0.000155497
68 *2373:D *180:20 7.06865e-05
69 *2383:A *180:107 1.12261e-05
70 *2385:A *180:113 0.000147697
71 *36:30 *2282:B 1.71013e-05
72 *42:26 *180:20 8.41703e-06
73 *55:20 *2299:A1 0.000592928
74 *71:22 *180:20 0.000161731
75 *71:22 *180:58 9.09788e-06
76 *75:38 *180:58 1.11399e-05
77 *80:26 *180:20 0
78 *106:88 *2287:B 0.000141606
79 *115:70 *180:82 0.000118081
80 *119:24 *2299:A1 0.000194036
81 *130:46 *180:58 0.000145857
82 *130:52 *180:58 0.000549216
83 *134:105 *180:58 0.000261313
84 *134:105 *180:67 0.000149759
85 *134:105 *180:82 0.000189534
86 *143:24 *180:58 0.000343223
87 *143:28 *180:58 0.00023065
88 *151:121 *2287:B 5.1843e-05
89 *156:38 *180:86 0.00015356
90 *156:38 *180:107 0.000477429
91 *161:16 *180:156 0.000300935
92 *163:14 *180:113 0.000738437
93 *163:14 *180:128 0.000108886
94 *163:14 *180:141 0.000187376
95 *163:14 *180:156 0.000108098
96 *163:24 *180:113 0.000454723
97 *169:22 *180:113 0.000521227
98 *169:24 *180:113 0.000117667
99 *169:102 *180:20 3.06743e-05
100 *169:102 *180:58 2.94928e-05
101 *169:108 *180:20 2.55962e-05
102 *171:8 *180:113 0.000456803
103 *171:252 *180:113 0.00029491
104 *172:10 *180:58 2.48381e-05
105 *175:90 *180:20 0
106 *179:54 *2282:B 0.000139238
107 *179:54 *180:141 9.07355e-05
108 *179:54 *180:156 6.58339e-05
109 *179:82 *483:DIODE 0.000159714
110 *179:84 *483:DIODE 0.000112538
111 *179:84 *180:20 4.89362e-05
112 *179:104 *180:20 4.89395e-05
113 *179:194 *180:113 0.000198939
*RES
1 *2374:Q *180:6 3.6 
2 *180:6 *180:20 20.42 
3 *180:20 *2288:A2 1.6 
4 *180:20 *483:DIODE 4.12 
5 *180:6 *180:58 38.4795 
6 *180:58 *493:DIODE 3.6 
7 *180:58 *180:67 1.89 
8 *180:67 *2294:A 4.395 
9 *180:67 *180:82 5.54 
10 *180:82 *180:86 3.89 
11 *180:86 *2299:A1 16.765 
12 *180:86 *180:107 18.17 
13 *180:107 *180:113 46.11 
14 *180:113 *478:DIODE 1.6 
15 *180:113 *2286:B 3.4275 
16 *180:107 *180:128 1.14 
17 *180:128 *2282:B 8.51 
18 *180:128 *180:141 1.83 
19 *180:141 *471:DIODE 1.6 
20 *180:141 *180:156 14.44 
21 *180:156 *480:DIODE 1.6 
22 *180:156 *2287:B 9.41 
23 *180:82 *504:DIODE 1.6 
*END

*D_NET *181 0.05083
*CONN
*I *481:DIODE I *D sky130_fd_sc_hd__diode_2
*I *2287:C I *D sky130_fd_sc_hd__nand3_2
*I *2285:A1 I *D sky130_fd_sc_hd__a21oi_1
*I *474:DIODE I *D sky130_fd_sc_hd__diode_2
*I *2299:A3 I *D sky130_fd_sc_hd__o31ai_2
*I *506:DIODE I *D sky130_fd_sc_hd__diode_2
*I *2297:C I *D sky130_fd_sc_hd__or3_1
*I *503:DIODE I *D sky130_fd_sc_hd__diode_2
*I *2292:A2 I *D sky130_fd_sc_hd__o21ai_4
*I *490:DIODE I *D sky130_fd_sc_hd__diode_2
*I *484:DIODE I *D sky130_fd_sc_hd__diode_2
*I *2288:B1 I *D sky130_fd_sc_hd__a21o_1
*I *497:DIODE I *D sky130_fd_sc_hd__diode_2
*I *2295:C1 I *D sky130_fd_sc_hd__a211o_1
*I *2375:Q O *D sky130_fd_sc_hd__dfrtp_4
*CAP
1 *481:DIODE 0
2 *2287:C 7.55317e-05
3 *2285:A1 0
4 *474:DIODE 3.60237e-05
5 *2299:A3 0
6 *506:DIODE 0.000190825
7 *2297:C 0.000324862
8 *503:DIODE 0.000155789
9 *2292:A2 4.1028e-05
10 *490:DIODE 2.6306e-05
11 *484:DIODE 0
12 *2288:B1 7.26442e-05
13 *497:DIODE 0
14 *2295:C1 0.000283153
15 *2375:Q 0.0016625
16 *181:194 0.000864779
17 *181:177 0.000829165
18 *181:166 0.000203947
19 *181:150 0.000384983
20 *181:144 0.00212169
21 *181:118 0.000780681
22 *181:98 6.7334e-05
23 *181:78 0.00115199
24 *181:46 0.00120436
25 *181:32 0.0022877
26 *181:30 0.00137019
27 *181:12 0.00161366
28 *181:10 0.00369261
29 *490:DIODE *182:36 1.91597e-05
30 *490:DIODE *182:46 4.66108e-05
31 *490:DIODE *219:24 8.23457e-05
32 *503:DIODE *182:80 0.000104588
33 *506:DIODE *2299:A2 8.40213e-05
34 *2288:B1 *214:14 3.4399e-05
35 *2292:A2 *182:36 6.77501e-05
36 *2292:A2 *219:24 0.0001249
37 *2295:C1 *2295:B1 0.00016031
38 *2295:C1 *218:34 6.88421e-05
39 *2297:C *2297:B 0.000106395
40 *2297:C *182:80 0.000336076
41 *2297:C *213:58 7.08297e-05
42 *181:10 *185:84 0.0013425
43 *181:30 *182:80 0.000437786
44 *181:30 *195:50 8.35106e-05
45 *181:30 *209:22 0.000246472
46 *181:30 *218:76 0.000148935
47 *181:46 *2262:A 0.000122801
48 *181:46 *196:44 0.000307429
49 *181:46 *198:28 2.49909e-05
50 *181:46 *198:30 0.000110113
51 *181:46 *198:44 0.000396061
52 *181:78 *191:98 2.05056e-05
53 *181:78 *198:28 0.000579423
54 *181:78 *199:142 0.00128931
55 *181:78 *214:14 0.000123257
56 *181:118 *182:80 0.000197513
57 *181:144 *320:DIODE 4.89295e-05
58 *181:144 *2218:A 0.000206083
59 *181:144 *203:78 0.000200824
60 *181:144 *206:56 0.00124941
61 *181:144 *209:22 7.49327e-05
62 *181:144 *209:24 0.000112075
63 *181:166 *182:128 3.95521e-05
64 *181:177 *182:128 2.58818e-05
65 *181:194 *2263:A 3.03663e-05
66 *378:DIODE *181:78 0.000177879
67 *2218:B *181:30 0.00171919
68 *2220:B *2295:C1 0.000234353
69 *2220:B *181:46 0.000304845
70 *2235:B1 *181:10 8.14891e-05
71 *2243:A *2288:B1 0.000158564
72 *2243:A *181:78 0.000344448
73 *2263:B *181:194 2.68526e-05
74 *2263:C *181:194 8.34281e-06
75 *2272:C *181:177 4.43871e-06
76 *2272:C *181:194 0.000406975
77 *2281:B *506:DIODE 6.63307e-05
78 *2281:B *181:150 0.000414248
79 *2289:C *2288:B1 9.12494e-06
80 *2289:C *181:78 9.23578e-05
81 *2298:A *2297:C 6.62684e-05
82 *2299:A1 *506:DIODE 8.23457e-05
83 *2299:B1 *506:DIODE 4.98216e-05
84 *2299:B1 *181:150 6.1357e-05
85 *2300:A *181:10 4.04634e-05
86 *2346:D *474:DIODE 0.00015639
87 *2353:D *474:DIODE 0.00015896
88 *2353:RESET_B *181:144 4.66108e-05
89 *2375:D *181:10 2.75229e-05
90 *2386:A *181:194 5.83121e-06
91 *18:10 *2297:C 7.08297e-05
92 *18:10 *181:10 0
93 *26:12 *181:46 0.00013521
94 *28:28 *181:10 0.00012786
95 *36:30 *181:166 0.000102557
96 *55:20 *181:144 0.00190926
97 *70:12 *181:30 0.00168033
98 *75:28 *181:30 1.01121e-05
99 *90:24 *181:10 0.000356574
100 *90:24 *181:12 0.000141724
101 *103:14 *181:150 0.000154968
102 *103:14 *181:166 0.000418731
103 *103:14 *181:177 9.30787e-05
104 *103:14 *181:194 0.000262932
105 *103:34 *181:194 0.000120786
106 *105:18 *181:30 0.000145029
107 *105:18 *181:32 0.000512058
108 *105:18 *181:46 5.16418e-05
109 *106:30 *2297:C 0.000186116
110 *106:30 *181:30 0.00085587
111 *106:34 *181:30 2.79424e-05
112 *119:44 *181:32 0
113 *122:14 *2295:C1 0.000161467
114 *126:22 *181:46 0.00213261
115 *126:22 *181:78 0.00218276
116 *131:44 *181:10 0.00240616
117 *131:44 *181:12 0.000775049
118 *131:44 *181:30 9.28656e-05
119 *132:28 *181:150 0.000157555
120 *141:77 *181:194 1.43191e-05
121 *143:24 *181:30 0.000119756
122 *150:10 *181:194 6.80137e-05
123 *152:30 *2287:C 3.73067e-05
124 *152:30 *181:194 0.000267526
125 *158:24 *181:46 0.000136877
126 *163:14 *2287:C 4.77719e-05
127 *169:202 *181:10 0
128 *169:228 *181:10 0
129 *172:88 *181:10 0.00026349
130 *172:88 *181:12 0.000768385
131 *172:88 *181:30 9.42867e-05
132 *177:108 *181:194 0.000188868
133 *178:74 *181:150 0.000154968
134 *178:74 *181:166 0.000324958
135 *179:104 *2288:B1 0.000159722
*RES
1 *2375:Q *181:10 46.995 
2 *181:10 *181:12 9.285 
3 *181:12 *181:30 44.27 
4 *181:30 *181:32 6.225 
5 *181:32 *181:46 30.885 
6 *181:46 *2295:C1 10.895 
7 *181:46 *497:DIODE 1.6 
8 *181:32 *181:78 36.19 
9 *181:78 *2288:B1 5.955 
10 *181:78 *484:DIODE 3.6 
11 *181:30 *181:98 2 
12 *181:98 *490:DIODE 2.395 
13 *181:98 *2292:A2 3.1 
14 *181:12 *181:118 5.555 
15 *181:118 *503:DIODE 3.43 
16 *181:118 *2297:C 13.13 
17 *181:10 *181:144 38.605 
18 *181:144 *181:150 7.79 
19 *181:150 *506:DIODE 4.825 
20 *181:150 *2299:A3 1.6 
21 *181:144 *181:166 4.95 
22 *181:166 *474:DIODE 5.085 
23 *181:166 *181:177 1.125 
24 *181:177 *2285:A1 3.6 
25 *181:177 *181:194 19.445 
26 *181:194 *2287:C 3.1 
27 *181:194 *481:DIODE 1.6 
*END

*D_NET *182 0.0411175
*CONN
*I *472:DIODE I *D sky130_fd_sc_hd__diode_2
*I *2282:C I *D sky130_fd_sc_hd__or3_1
*I *487:DIODE I *D sky130_fd_sc_hd__diode_2
*I *2291:A I *D sky130_fd_sc_hd__xnor2_1
*I *505:DIODE I *D sky130_fd_sc_hd__diode_2
*I *2299:A2 I *D sky130_fd_sc_hd__o31ai_2
*I *2297:B I *D sky130_fd_sc_hd__or3_1
*I *502:DIODE I *D sky130_fd_sc_hd__diode_2
*I *489:DIODE I *D sky130_fd_sc_hd__diode_2
*I *2292:A1 I *D sky130_fd_sc_hd__o21ai_4
*I *496:DIODE I *D sky130_fd_sc_hd__diode_2
*I *2295:B1 I *D sky130_fd_sc_hd__a211o_1
*I *2376:Q O *D sky130_fd_sc_hd__dfrtp_4
*CAP
1 *472:DIODE 0.000294809
2 *2282:C 0
3 *487:DIODE 0
4 *2291:A 0.000140238
5 *505:DIODE 3.69588e-05
6 *2299:A2 0.000255201
7 *2297:B 0.000277592
8 *502:DIODE 0
9 *489:DIODE 6.51826e-05
10 *2292:A1 0
11 *496:DIODE 0
12 *2295:B1 0.00012072
13 *2376:Q 0.000562991
14 *182:136 0.00150233
15 *182:130 0.00136209
16 *182:128 0.00100811
17 *182:113 0.000915594
18 *182:80 0.00133723
19 *182:46 0.00147119
20 *182:36 0.00163613
21 *182:32 0.00127786
22 *182:26 0.00259094
23 *182:18 0.00109829
24 *182:14 0.000967127
25 *472:DIODE *185:78 0
26 *472:DIODE *202:96 0.000415144
27 *489:DIODE *491:DIODE 2.49909e-05
28 *489:DIODE *2292:B1 8.23457e-05
29 *489:DIODE *219:24 3.09179e-05
30 *2295:B1 *218:34 0.000136544
31 *2299:A2 *203:74 0.000253074
32 *2299:A2 *208:36 0.000528667
33 *182:14 *204:57 4.21906e-05
34 *182:14 *204:63 0.000339024
35 *182:14 *221:14 0.000323739
36 *182:18 *2277:A 2.49909e-05
37 *182:18 *203:74 3.70053e-05
38 *182:18 *204:63 0.000259566
39 *182:26 *2180:D 0.000121437
40 *182:26 *187:20 0.000876503
41 *182:26 *191:82 4.85118e-05
42 *182:26 *191:90 7.23961e-06
43 *182:26 *195:90 0.000299512
44 *182:26 *208:36 0.000320917
45 *182:32 *198:28 0.000264805
46 *182:32 *198:68 0.00179128
47 *182:36 *2292:B1 0.000200988
48 *182:36 *219:24 8.33055e-05
49 *182:46 *425:DIODE 0.000123955
50 *182:46 *195:72 3.75126e-05
51 *182:46 *198:28 7.58604e-05
52 *182:46 *219:24 1.91597e-05
53 *182:80 *195:50 8.23457e-05
54 *182:80 *198:68 0.000195972
55 *182:128 *185:14 0
56 *182:128 *185:78 0
57 *182:136 *456:DIODE 0.000123279
58 *182:136 *202:96 0.0014638
59 *182:136 *203:103 4.41506e-05
60 *490:DIODE *182:36 1.91597e-05
61 *490:DIODE *182:46 4.66108e-05
62 *503:DIODE *182:80 0.000104588
63 *506:DIODE *2299:A2 8.40213e-05
64 *2182:C *2299:A2 3.46704e-05
65 *2182:C *182:26 8.8771e-05
66 *2188:D *182:46 0.000114492
67 *2200:A_N *182:80 3.96284e-05
68 *2200:B *182:80 0.000339027
69 *2218:B *182:46 0.000245331
70 *2227:A *2295:B1 2.68526e-05
71 *2227:A *182:46 1.52352e-05
72 *2227:B *182:46 4.94474e-05
73 *2227:C *182:46 8.28119e-05
74 *2272:C *472:DIODE 0.00013521
75 *2272:C *182:128 0.00106863
76 *2275:B *182:136 2.50602e-05
77 *2281:B *2299:A2 8.23457e-05
78 *2291:B *2291:A 0.000272085
79 *2291:B *182:136 0.000148084
80 *2292:A2 *182:36 6.77501e-05
81 *2295:A1 *2295:B1 5.4155e-06
82 *2295:A1 *182:46 2.19234e-05
83 *2295:C1 *2295:B1 0.00016031
84 *2297:C *2297:B 0.000106395
85 *2297:C *182:80 0.000336076
86 *2376:RESET_B *182:14 2.54047e-05
87 *2376:RESET_B *182:32 0.000629263
88 *2376:RESET_B *182:80 0.000214759
89 *19:10 *2291:A 0.000195476
90 *19:10 *182:136 0.00152476
91 *36:30 *182:113 0.000128703
92 *36:30 *182:128 0.000119325
93 *56:20 *182:80 1.06022e-05
94 *70:12 *182:46 0.000501057
95 *96:20 *182:32 0.000120763
96 *106:30 *182:80 0.000137667
97 *108:24 *182:80 9.09077e-05
98 *122:14 *2295:B1 6.5181e-05
99 *122:37 *182:46 6.44741e-05
100 *126:22 *182:46 0.00209766
101 *132:28 *505:DIODE 4.66108e-05
102 *132:28 *182:113 0.000249748
103 *132:28 *182:128 1.01152e-05
104 *134:105 *182:18 0.000118081
105 *144:22 *182:136 6.27029e-05
106 *146:20 *182:26 0.000921864
107 *149:30 *182:46 4.99619e-05
108 *156:38 *182:128 1.65313e-05
109 *156:65 *182:113 4.87939e-05
110 *159:18 *182:18 0.000264598
111 *163:24 *182:136 0.000649264
112 *166:10 *182:32 0
113 *169:44 *182:32 0
114 *169:160 *182:14 4.70338e-05
115 *174:16 *182:32 0.000169173
116 *174:126 *182:32 0.000123268
117 *177:136 *472:DIODE 2.15594e-05
118 *177:136 *182:136 8.65905e-05
119 *178:74 *182:113 0.000501523
120 *178:74 *182:128 0.000519588
121 *180:86 *182:128 7.98967e-05
122 *180:107 *182:128 0.00118459
123 *181:30 *182:80 0.000437786
124 *181:118 *182:80 0.000197513
125 *181:166 *182:128 3.95521e-05
126 *181:177 *182:128 2.58818e-05
*RES
1 *2376:Q *182:14 16.415 
2 *182:14 *182:18 7.28 
3 *182:18 *182:26 22.87 
4 *182:26 *182:32 27.2 
5 *182:32 *182:36 5.64 
6 *182:36 *182:46 33.295 
7 *182:46 *2295:B1 5.185 
8 *182:46 *496:DIODE 1.6 
9 *182:36 *2292:A1 1.6 
10 *182:32 *489:DIODE 3.085 
11 *182:26 *182:80 24.86 
12 *182:80 *502:DIODE 1.6 
13 *182:80 *2297:B 5.08 
14 *182:18 *2299:A2 11.43 
15 *182:14 *182:113 7.97 
16 *182:113 *505:DIODE 4.05 
17 *182:113 *182:128 21.57 
18 *182:128 *182:130 2 
19 *182:130 *182:136 34.635 
20 *182:136 *2291:A 5.08 
21 *182:136 *487:DIODE 1.6 
22 *182:130 *2282:C 1.6 
23 *182:128 *472:DIODE 8.445 
*END

*D_NET *183 0.0308768
*CONN
*I *260:DIODE I *D sky130_fd_sc_hd__diode_2
*I *2190:A_N I *D sky130_fd_sc_hd__and2b_1
*I *265:DIODE I *D sky130_fd_sc_hd__diode_2
*I *2192:A I *D sky130_fd_sc_hd__or2_1
*I *263:DIODE I *D sky130_fd_sc_hd__diode_2
*I *2199:A1 I *D sky130_fd_sc_hd__a31o_1
*I *276:DIODE I *D sky130_fd_sc_hd__diode_2
*I *272:DIODE I *D sky130_fd_sc_hd__diode_2
*I *2197:A I *D sky130_fd_sc_hd__and4_1
*I *223:DIODE I *D sky130_fd_sc_hd__diode_2
*I *2178:B I *D sky130_fd_sc_hd__or4b_2
*I *2193:A I *D sky130_fd_sc_hd__nand2_2
*I *2341:Q O *D sky130_fd_sc_hd__dfrtp_4
*CAP
1 *260:DIODE 4.51691e-05
2 *2190:A_N 0
3 *265:DIODE 9.04572e-05
4 *2192:A 0
5 *263:DIODE 0.000114336
6 *2199:A1 0
7 *276:DIODE 0.000178624
8 *272:DIODE 0
9 *2197:A 0
10 *223:DIODE 6.01354e-05
11 *2178:B 0.000153871
12 *2193:A 0.000202723
13 *2341:Q 0
14 *183:152 4.51691e-05
15 *183:150 0.00198275
16 *183:125 0.000141038
17 *183:101 0.000364814
18 *183:67 0.00136586
19 *183:57 0.00126664
20 *183:51 0.0015431
21 *183:43 0.00178246
22 *183:37 0.000740836
23 *183:33 0.000693967
24 *183:12 0.000617511
25 *183:6 0.00234022
26 *263:DIODE *2192:B 1.62913e-05
27 *276:DIODE *194:73 8.23457e-05
28 *276:DIODE *205:22 0.00029494
29 *276:DIODE *205:28 4.66108e-05
30 *2178:B *2178:C 0.000235352
31 *2193:A *190:44 5.05223e-05
32 *183:12 *2245:A 1.74977e-05
33 *183:12 *196:16 0.000135012
34 *183:33 *191:98 0.00014246
35 *183:37 *191:98 0.00144726
36 *183:37 *194:47 0.000706156
37 *183:37 *208:38 0
38 *183:43 *2192:B 2.88357e-05
39 *183:43 *2241:A1 1.16578e-05
40 *183:51 *379:DIODE 0.000198939
41 *183:51 *2241:A1 7.06865e-05
42 *183:51 *190:88 2.46089e-05
43 *183:51 *208:38 2.05583e-05
44 *183:67 *2178:C 0.000242731
45 *183:67 *194:75 0.00226788
46 *183:67 *194:95 7.70995e-05
47 *183:101 *2199:B1 0.000172945
48 *183:101 *194:61 0.000236071
49 *183:101 *194:73 9.12494e-06
50 *183:101 *208:38 0.000145496
51 *183:101 *208:40 4.09654e-05
52 *183:125 *2192:B 1.43558e-05
53 *183:150 *2245:A 6.54596e-05
54 *183:150 *192:92 0.000185795
55 *183:150 *196:16 0.000238055
56 *183:150 *196:70 0.000587482
57 *183:150 *203:66 0.000243593
58 *183:150 *216:12 0.00215117
59 *458:DIODE *223:DIODE 0
60 *580:DIODE *183:67 4.77807e-05
61 *2264:B *183:150 0
62 *2289:C *263:DIODE 3.54463e-05
63 *2289:C *183:43 8.7069e-05
64 *2341:D *2193:A 4.88555e-05
65 *2341:RESET_B *183:12 1.79536e-05
66 *2350:D *276:DIODE 4.54403e-05
67 *2369:D *183:67 0.000187609
68 *2381:A *2193:A 8.23457e-05
69 *16:10 *183:12 3.11802e-05
70 *16:10 *183:150 0.000650135
71 *17:24 *265:DIODE 0.000119247
72 *34:12 *276:DIODE 0.000241483
73 *42:26 *183:150 0.000438428
74 *100:149 *260:DIODE 0.000122818
75 *102:8 *263:DIODE 0.000119251
76 *103:14 *2193:A 0.000131409
77 *103:14 *183:12 0.000359924
78 *103:14 *183:150 0.000145649
79 *103:34 *183:150 0.000865444
80 *107:12 *183:101 0
81 *119:44 *183:57 0.00012585
82 *119:44 *183:67 8.33066e-06
83 *126:22 *183:51 0.000668271
84 *126:22 *183:57 3.03775e-05
85 *129:41 *183:150 0
86 *143:24 *183:37 0.000359787
87 *151:96 *183:12 8.4465e-05
88 *151:96 *183:51 0
89 *151:96 *183:101 0
90 *161:16 *183:150 0.000118519
91 *162:8 *183:57 0.000133862
92 *162:8 *183:67 0.000113891
93 *169:160 *183:150 0
94 *174:41 *183:67 0.000196084
95 *174:54 *183:67 0.000832606
96 *180:58 *183:33 0.000150791
97 *180:58 *183:37 0.000338871
*RES
1 *2341:Q *183:6 3.6 
2 *183:6 *183:12 8.57 
3 *183:12 *2193:A 8.855 
4 *183:12 *183:33 3.89 
5 *183:33 *183:37 20.72 
6 *183:37 *183:43 4.88 
7 *183:43 *183:51 21.185 
8 *183:51 *183:57 4.43 
9 *183:57 *183:67 30.125 
10 *183:67 *2178:B 3.775 
11 *183:67 *223:DIODE 6.47 
12 *183:57 *2197:A 3.6 
13 *183:51 *272:DIODE 1.6 
14 *183:43 *183:101 6.44 
15 *183:101 *276:DIODE 10.655 
16 *183:101 *2199:A1 1.6 
17 *183:37 *183:125 0.45 
18 *183:125 *263:DIODE 3.79 
19 *183:125 *2192:A 1.6 
20 *183:33 *265:DIODE 4.74 
21 *183:6 *183:150 52.89 
22 *183:150 *183:152 2 
23 *183:152 *2190:A_N 1.6 
24 *183:152 *260:DIODE 2.74 
*END

*D_NET *184 0.0434134
*CONN
*I *2230:A I *D sky130_fd_sc_hd__and4_1
*I *2226:A I *D sky130_fd_sc_hd__nand3_2
*I *339:DIODE I *D sky130_fd_sc_hd__diode_2
*I *348:DIODE I *D sky130_fd_sc_hd__diode_2
*I *2225:A1 I *D sky130_fd_sc_hd__a21o_1
*I *336:DIODE I *D sky130_fd_sc_hd__diode_2
*I *334:DIODE I *D sky130_fd_sc_hd__diode_2
*I *2224:A I *D sky130_fd_sc_hd__xor2_2
*I *252:DIODE I *D sky130_fd_sc_hd__diode_2
*I *2187:A I *D sky130_fd_sc_hd__or4b_2
*I *2231:A I *D sky130_fd_sc_hd__and4_1
*I *352:DIODE I *D sky130_fd_sc_hd__diode_2
*I *2351:Q O *D sky130_fd_sc_hd__dfrtp_4
*CAP
1 *2230:A 0
2 *2226:A 7.68228e-05
3 *339:DIODE 0
4 *348:DIODE 0
5 *2225:A1 6.57459e-05
6 *336:DIODE 0
7 *334:DIODE 0.000480543
8 *2224:A 0.000239136
9 *252:DIODE 0
10 *2187:A 0.000232934
11 *2231:A 0
12 *352:DIODE 2.26504e-05
13 *2351:Q 0
14 *184:161 0.000629724
15 *184:155 0.000729
16 *184:144 0.0013894
17 *184:121 0.0013984
18 *184:114 0.000990993
19 *184:60 0.000367434
20 *184:58 0.000612401
21 *184:56 0.000719307
22 *184:54 0.00300425
23 *184:52 0.00300425
24 *184:38 0.00178642
25 *184:20 0.00280816
26 *184:6 0.00191603
27 *2187:A *198:44 0
28 *2224:A *196:44 0.000263556
29 *2226:A *2226:B 3.26889e-05
30 *2226:A *2392:A 0.000186393
31 *184:20 *201:71 0.00159931
32 *184:20 *211:68 0.00155923
33 *184:38 *2211:B 0.000193516
34 *184:38 *2231:B 3.94628e-05
35 *184:38 *2231:D 9.2951e-05
36 *184:38 *193:72 0.000280612
37 *184:54 *186:36 0.000178967
38 *184:54 *189:60 0.000199125
39 *184:54 *195:50 0.000350143
40 *184:54 *195:72 0
41 *184:54 *206:14 0.000230906
42 *184:54 *209:39 0
43 *184:54 *209:57 0
44 *184:54 *213:30 2.34888e-05
45 *184:54 *213:58 0.000502511
46 *184:54 *213:118 0.0013669
47 *184:114 *2183:B 5.68531e-05
48 *184:144 *2270:A 0.000122331
49 *184:144 *195:132 0.000569255
50 *184:144 *204:24 4.46808e-07
51 *184:144 *211:68 0.000718129
52 *184:155 *195:132 0.000186388
53 *184:155 *211:68 0.000234784
54 *184:161 *2392:A 8.57024e-05
55 *238:DIODE *184:114 1.88602e-05
56 *2182:A *184:114 3.72899e-05
57 *2220:C *334:DIODE 0.000333176
58 *2220:C *2187:A 0.00023389
59 *2220:C *184:58 0.000332191
60 *2220:C *184:60 0.000186393
61 *2225:A2 *2225:A1 4.66108e-05
62 *2226:C *2226:A 0.000348704
63 *2226:C *184:161 8.40269e-05
64 *2351:RESET_B *184:20 0.000173695
65 *2351:RESET_B *184:114 4.09813e-05
66 *18:10 *184:38 0
67 *21:36 *184:20 8.3062e-05
68 *29:12 *184:54 0.000849575
69 *56:16 *184:144 0.000135393
70 *58:18 *184:155 3.57846e-05
71 *58:18 *184:161 0.000354379
72 *67:26 *184:161 0.000317222
73 *71:22 *334:DIODE 0
74 *71:22 *2224:A 0
75 *71:22 *184:54 0.00061984
76 *74:10 *2187:A 6.28843e-05
77 *75:28 *184:54 0
78 *94:20 *184:20 1.37515e-05
79 *95:18 *184:114 6.9748e-05
80 *95:46 *184:114 0.000507776
81 *103:34 *2225:A1 7.30547e-05
82 *106:88 *184:144 0.000295933
83 *111:10 *184:155 0.000180682
84 *111:10 *184:161 0.00210195
85 *112:12 *2225:A1 2.49909e-05
86 *112:12 *184:114 0.000798971
87 *112:12 *184:121 0.000201503
88 *112:12 *184:144 0.000947594
89 *112:24 *352:DIODE 4.89295e-05
90 *112:24 *184:38 0.000119242
91 *113:32 *184:54 0.000284969
92 *115:14 *184:38 0.000160389
93 *116:84 *184:38 9.42475e-05
94 *119:44 *334:DIODE 3.0933e-05
95 *120:18 *2224:A 4.75576e-05
96 *120:18 *184:54 0
97 *122:37 *334:DIODE 0.000397786
98 *126:8 *2226:A 8.82557e-05
99 *129:12 *184:38 0.000743472
100 *134:113 *184:161 0.00139003
101 *134:126 *184:155 0.000106655
102 *134:126 *184:161 7.70828e-05
103 *134:175 *184:20 0.0001609
104 *134:175 *184:114 0.000103385
105 *141:114 *184:114 0
106 *149:30 *334:DIODE 0.000179015
107 *151:22 *184:144 2.32139e-05
108 *151:22 *184:155 0.000103554
109 *153:30 *184:54 0.000196664
110 *172:160 *184:54 0
111 *174:28 *2224:A 0
*RES
1 *2351:Q *184:6 3.6 
2 *184:6 *184:20 31.74 
3 *184:20 *184:38 35.555 
4 *184:38 *352:DIODE 2.05 
5 *184:38 *2231:A 1.6 
6 *184:20 *184:52 2 
7 *184:52 *184:54 63.09 
8 *184:54 *184:56 2 
9 *184:56 *184:58 3.21 
10 *184:58 *184:60 1.83 
11 *184:60 *2187:A 9.155 
12 *184:60 *252:DIODE 1.6 
13 *184:58 *2224:A 10.295 
14 *184:56 *334:DIODE 14.135 
15 *184:6 *184:114 17.66 
16 *184:114 *336:DIODE 1.6 
17 *184:114 *184:121 1.83 
18 *184:121 *2225:A1 6.92 
19 *184:121 *184:144 28.93 
20 *184:144 *348:DIODE 1.6 
21 *184:144 *184:155 7.7 
22 *184:155 *184:161 27.125 
23 *184:161 *339:DIODE 1.6 
24 *184:161 *2226:A 5.17 
25 *184:155 *2230:A 3.6 
*END

*D_NET *185 0.0431492
*CONN
*I *2225:B1 I *D sky130_fd_sc_hd__a21o_1
*I *338:DIODE I *D sky130_fd_sc_hd__diode_2
*I *353:DIODE I *D sky130_fd_sc_hd__diode_2
*I *2231:B I *D sky130_fd_sc_hd__and4_1
*I *255:DIODE I *D sky130_fd_sc_hd__diode_2
*I *2187:D_N I *D sky130_fd_sc_hd__or4b_2
*I *2230:B I *D sky130_fd_sc_hd__and4_1
*I *349:DIODE I *D sky130_fd_sc_hd__diode_2
*I *340:DIODE I *D sky130_fd_sc_hd__diode_2
*I *2226:B I *D sky130_fd_sc_hd__nand3_2
*I *2352:Q O *D sky130_fd_sc_hd__dfrtp_4
*CAP
1 *2225:B1 7.22619e-05
2 *338:DIODE 0
3 *353:DIODE 0
4 *2231:B 0.000246791
5 *255:DIODE 0
6 *2187:D_N 4.07253e-05
7 *2230:B 0.00038485
8 *349:DIODE 0
9 *340:DIODE 0
10 *2226:B 0.000318551
11 *2352:Q 0.000344273
12 *185:114 0.00088259
13 *185:86 4.07253e-05
14 *185:84 0.00206217
15 *185:82 0.00206217
16 *185:80 0.00150019
17 *185:78 0.00160559
18 *185:56 0.000410988
19 *185:30 0.00117522
20 *185:20 0.00236524
21 *185:14 0.00249565
22 *2187:D_N *2187:B 6.33103e-05
23 *2230:B *2230:C 4.9968e-05
24 *2230:B *2253:A 0.000120655
25 *2230:B *186:117 0.000173533
26 *2231:B *355:DIODE 0.000121043
27 *2231:B *2231:D 8.23457e-05
28 *185:14 *205:68 8.39722e-05
29 *185:30 *2392:A 7.66388e-05
30 *185:30 *186:117 0.000509318
31 *185:56 *186:117 6.38291e-05
32 *185:78 *202:96 7.26475e-06
33 *185:78 *203:120 0
34 *185:78 *205:68 0.000305733
35 *185:78 *205:94 0.000554957
36 *185:80 *209:115 0.000473531
37 *185:84 *188:20 0.00231635
38 *185:84 *188:102 9.0501e-05
39 *185:84 *204:112 9.30787e-05
40 *185:114 *355:DIODE 0.000148919
41 *185:114 *362:DIODE 0.000119251
42 *185:114 *2211:B 4.84935e-05
43 *185:114 *193:72 0
44 seg[1] *2226:B 0.000143352
45 *365:DIODE *185:84 0.000149952
46 *472:DIODE *185:78 0
47 *573:DIODE *185:30 8.23457e-05
48 *578:DIODE *185:84 0.000131881
49 *2198:A *185:84 0.000894282
50 *2225:A2 *2225:B1 5.00638e-05
51 *2226:A *2226:B 3.26889e-05
52 *2226:C *2226:B 2.68526e-05
53 *2230:D *2230:B 3.3485e-05
54 *2290:A *2187:D_N 8.40269e-05
55 *2300:A *185:84 4.04634e-05
56 *2330:A *185:84 5.16418e-05
57 *2352:RESET_B *185:14 0.00018955
58 *2358:CLK *185:114 0.000122331
59 *2358:D *185:114 3.96088e-05
60 *2366:RESET_B *185:30 1.23244e-05
61 *18:10 *185:114 0.000172182
62 *28:28 *185:30 0.000422812
63 *45:12 *2226:B 5.02217e-05
64 *67:26 *2231:B 0
65 *90:24 *185:84 0.00073005
66 *99:8 *2187:D_N 2.01565e-05
67 *105:18 *185:84 7.8494e-06
68 *109:22 *2230:B 0.000154427
69 *109:22 *185:30 0.0017785
70 *109:22 *185:56 3.86607e-05
71 *112:12 *2225:B1 0.000300407
72 *112:12 *185:80 0.00355813
73 *112:12 *185:114 3.63661e-05
74 *112:24 *2231:B 4.66108e-05
75 *115:112 *2231:B 4.66108e-05
76 *116:84 *2231:B 0.000197329
77 *119:115 *2230:B 0.000198945
78 *119:115 *185:78 2.50166e-05
79 *119:163 *185:78 0.00021503
80 *120:18 *185:84 0.000875246
81 *125:12 *2225:B1 0.000234674
82 *125:12 *185:80 0.00158449
83 *126:8 *2226:B 9.21227e-05
84 *126:8 *185:30 0.000459383
85 *129:12 *2231:B 7.01132e-05
86 *129:12 *185:114 0.000249548
87 *138:32 *185:114 0.000262813
88 *144:22 *185:14 0.000245607
89 *144:22 *185:78 0.00015046
90 *152:30 *185:30 0.000164679
91 *170:96 *185:30 0.000487881
92 *172:64 *185:84 0.000314539
93 *172:88 *185:84 0.00139504
94 *174:26 *185:84 0.000893354
95 *174:28 *185:84 0.00013521
96 *174:92 *185:84 0.000858428
97 *176:102 *185:84 0.000101822
98 *176:102 *185:114 0.000124895
99 *177:136 *185:78 6.02123e-05
100 *177:170 *2230:B 2.03087e-05
101 *179:54 *185:20 0.00118071
102 *180:107 *185:14 0.000110073
103 *180:113 *185:20 4.80182e-05
104 *180:128 *185:20 3.96284e-05
105 *180:141 *185:20 1.31297e-05
106 *181:10 *185:84 0.0013425
107 *182:128 *185:14 0
108 *182:128 *185:78 0
109 *184:38 *2231:B 3.94628e-05
*RES
1 *2352:Q *185:14 10.68 
2 *185:14 *185:20 21.7 
3 *185:20 *185:30 29.705 
4 *185:30 *2226:B 10.415 
5 *185:30 *340:DIODE 1.6 
6 *185:20 *185:56 0.87 
7 *185:56 *349:DIODE 3.6 
8 *185:56 *2230:B 10.575 
9 *185:14 *185:78 17.66 
10 *185:78 *185:80 32.88 
11 *185:80 *185:82 2 
12 *185:82 *185:84 71.505 
13 *185:84 *185:86 2 
14 *185:86 *2187:D_N 2.74 
15 *185:86 *255:DIODE 1.6 
16 *185:80 *185:114 17.185 
17 *185:114 *2231:B 11.315 
18 *185:114 *353:DIODE 1.6 
19 *185:78 *338:DIODE 1.6 
20 *185:78 *2225:B1 4.825 
*END

*D_NET *186 0.035524
*CONN
*I *2229:A I *D sky130_fd_sc_hd__xnor2_1
*I *2230:C I *D sky130_fd_sc_hd__and4_1
*I *350:DIODE I *D sky130_fd_sc_hd__diode_2
*I *346:DIODE I *D sky130_fd_sc_hd__diode_2
*I *354:DIODE I *D sky130_fd_sc_hd__diode_2
*I *2231:C I *D sky130_fd_sc_hd__and4_1
*I *253:DIODE I *D sky130_fd_sc_hd__diode_2
*I *2187:B I *D sky130_fd_sc_hd__or4b_2
*I *2353:Q O *D sky130_fd_sc_hd__dfrtp_4
*CAP
1 *2229:A 0
2 *2230:C 0.000156112
3 *350:DIODE 3.69588e-05
4 *346:DIODE 0
5 *354:DIODE 4.15766e-05
6 *2231:C 0.000293922
7 *253:DIODE 0
8 *2187:B 0.000277788
9 *2353:Q 0
10 *186:117 0.000619656
11 *186:113 0.000511462
12 *186:100 0.00234015
13 *186:60 0.00156051
14 *186:58 0.00171974
15 *186:36 0.00229135
16 *186:10 0.00383251
17 *186:4 0.0035795
18 *2187:B *254:DIODE 0.000347408
19 *2230:C *2253:A 2.16917e-05
20 *186:10 *188:20 0.000113509
21 *186:36 *188:20 0.000552996
22 *186:36 *196:44 0
23 *186:36 *201:54 0.00016984
24 *186:36 *206:14 0.000145526
25 *186:36 *213:58 0.000511837
26 *186:60 *192:140 0
27 *186:100 *2281:A 4.56247e-06
28 *186:113 *2391:A 0.000151574
29 *186:117 *199:74 0.000186961
30 *186:117 *199:76 2.96553e-05
31 *186:117 *199:82 9.07525e-05
32 *2187:D_N *2187:B 6.33103e-05
33 *2230:B *2230:C 4.9968e-05
34 *2230:B *186:117 0.000173533
35 *2230:D *2230:C 0.000119866
36 *2234:B *186:36 0
37 *2290:A *2187:B 0.000118589
38 *2290:A *186:36 3.31348e-05
39 *2353:CLK *186:100 4.87904e-05
40 *2353:D *186:100 0.000104935
41 *2353:D *186:113 9.50342e-06
42 *2354:D *186:100 0.00041336
43 *2359:RESET_B *186:36 1.31297e-05
44 *2366:RESET_B *186:117 0.000221754
45 *2367:D *186:36 5.33153e-05
46 *2372:D *186:100 4.82863e-05
47 *26:38 *186:100 0.00151928
48 *28:28 *186:117 0.000142647
49 *29:12 *186:36 0.000189436
50 *41:24 *186:100 1.97849e-05
51 *41:24 *186:113 2.23407e-05
52 *47:12 *186:100 0.000868561
53 *57:14 *186:113 0.000269904
54 *65:16 *186:100 0.000976196
55 *65:16 *186:113 4.38051e-05
56 *66:32 *186:100 0.000232832
57 *71:22 *186:36 0.000430091
58 *74:10 *186:10 5.90378e-05
59 *74:10 *186:36 0.000270924
60 *90:24 *186:36 0.000138309
61 *99:8 *2187:B 7.67415e-06
62 *110:10 *186:117 0
63 *113:32 *186:36 0.000271116
64 *114:8 *186:58 0.000449976
65 *115:112 *2231:C 0.000312964
66 *116:50 *186:36 1.1647e-05
67 *119:115 *2230:C 1.33285e-05
68 *128:16 *350:DIODE 4.66108e-05
69 *128:16 *2230:C 0.00026617
70 *144:43 *186:10 0.00071127
71 *152:30 *186:117 0.000164679
72 *166:30 *186:36 1.7635e-05
73 *170:113 *2230:C 0.0001947
74 *171:10 *186:60 0.000569908
75 *171:16 *186:60 0.00150036
76 *171:170 *354:DIODE 7.23602e-05
77 *171:170 *186:60 0.00146101
78 *172:62 *186:36 0.000347321
79 *177:170 *2230:C 2.42236e-05
80 *177:170 *186:117 6.28843e-05
81 *179:194 *186:60 0.00202384
82 *184:54 *186:36 0.000178967
83 *185:30 *186:117 0.000509318
84 *185:56 *186:117 6.38291e-05
*RES
1 *2353:Q *186:4 1.6 
2 *186:4 *186:10 22.46 
3 *186:10 *186:36 44.64 
4 *186:36 *2187:B 7.6 
5 *186:36 *253:DIODE 1.6 
6 *186:10 *186:58 11.695 
7 *186:58 *186:60 41.16 
8 *186:60 *2231:C 7.26 
9 *186:60 *354:DIODE 4.47 
10 *186:4 *186:100 45.62 
11 *186:100 *346:DIODE 3.6 
12 *186:100 *186:113 5.135 
13 *186:113 *186:117 15.875 
14 *186:117 *350:DIODE 4.05 
15 *186:117 *2230:C 8.13 
16 *186:113 *2229:A 1.6 
*END

*D_NET *187 0.0349824
*CONN
*I *358:DIODE I *D sky130_fd_sc_hd__diode_2
*I *2233:A1 I *D sky130_fd_sc_hd__o21ba_1
*I *355:DIODE I *D sky130_fd_sc_hd__diode_2
*I *2231:D I *D sky130_fd_sc_hd__and4_1
*I *2187:C I *D sky130_fd_sc_hd__or4b_2
*I *254:DIODE I *D sky130_fd_sc_hd__diode_2
*I *2354:Q O *D sky130_fd_sc_hd__dfrtp_2
*CAP
1 *358:DIODE 0
2 *2233:A1 7.00109e-06
3 *355:DIODE 0.000129666
4 *2231:D 0.000119436
5 *2187:C 0
6 *254:DIODE 0.000402387
7 *2354:Q 0.00163945
8 *187:78 0.000490743
9 *187:74 0.00138311
10 *187:36 0.00148182
11 *187:22 0.0022209
12 *187:20 0.00238293
13 *187:16 0.00270699
14 *187:12 0.00195651
15 *187:12 *220:8 0.000347755
16 *187:20 *2180:A 8.49205e-05
17 *187:20 *2180:D 0.000105089
18 *187:20 *191:74 0.00135539
19 *187:20 *191:82 8.49205e-05
20 *187:20 *196:70 0.000119631
21 *187:20 *196:72 2.62017e-05
22 *187:36 *192:26 3.64998e-06
23 *187:36 *198:44 0.000604892
24 *187:78 *192:140 0.000463467
25 *501:DIODE *187:20 0.000119762
26 *2187:B *254:DIODE 0.000347408
27 *2231:B *355:DIODE 0.000121043
28 *2231:B *2231:D 8.23457e-05
29 *2233:A2 *2233:A1 4.87465e-06
30 *2233:A2 *187:16 1.15333e-05
31 *2233:B1_N *2233:A1 4.57682e-06
32 *2233:B1_N *187:16 2.46151e-06
33 *2233:B1_N *187:20 0.000178054
34 *2259:B *187:20 0.00184373
35 *2259:B *187:36 2.17185e-05
36 *17:14 *187:74 0
37 *26:12 *187:36 0.00221986
38 *30:18 *254:DIODE 9.61344e-05
39 *45:12 *187:12 0
40 *74:10 *254:DIODE 9.78082e-05
41 *99:8 *254:DIODE 4.82919e-05
42 *100:14 *187:36 0.000118743
43 *108:24 *187:12 0.00163602
44 *108:24 *187:16 0.000347112
45 *116:84 *2231:D 7.05866e-05
46 *116:84 *187:74 0.000672926
47 *125:16 *187:74 5.83121e-06
48 *127:26 *187:36 0.000131481
49 *127:26 *187:74 0.000391737
50 *130:74 *187:20 0.000560132
51 *131:18 *187:36 0
52 *134:8 *187:36 0.000200219
53 *134:10 *187:36 0.000151205
54 *134:16 *187:36 0.000545608
55 *134:224 *187:36 2.15594e-05
56 *136:16 *2231:D 0.000223083
57 *136:16 *187:74 0.00254685
58 *136:16 *187:78 0.00083333
59 *141:36 *187:74 0.000334283
60 *146:20 *187:20 0.00022027
61 *148:12 *187:74 0.000628822
62 *153:61 *187:36 7.23533e-05
63 *171:16 *187:36 9.61344e-05
64 *171:16 *187:74 0.000258927
65 *179:170 *187:36 0.000210626
66 *179:170 *187:74 2.03817e-05
67 *179:181 *187:74 0.000134756
68 *179:194 *187:74 0.000114643
69 *182:26 *187:20 0.000876503
70 *184:38 *2231:D 9.2951e-05
71 *185:114 *355:DIODE 0.000148919
*RES
1 *2354:Q *187:12 28.835 
2 *187:12 *187:16 4.52625 
3 *187:16 *187:20 48.6637 
4 *187:20 *187:22 2 
5 *187:22 *187:36 40.005 
6 *187:36 *254:DIODE 12.125 
7 *187:36 *2187:C 1.6 
8 *187:22 *187:74 44.6 
9 *187:74 *187:78 11.795 
10 *187:78 *2231:D 9.05 
11 *187:78 *355:DIODE 4.12 
12 *187:16 *2233:A1 1.91125 
13 *187:12 *358:DIODE 1.6 
*END

*D_NET *188 0.0242158
*CONN
*I *2235:A1 I *D sky130_fd_sc_hd__o211a_1
*I *362:DIODE I *D sky130_fd_sc_hd__diode_2
*I *2234:A I *D sky130_fd_sc_hd__nand2_2
*I *360:DIODE I *D sky130_fd_sc_hd__diode_2
*I *2237:B I *D sky130_fd_sc_hd__and4_1
*I *369:DIODE I *D sky130_fd_sc_hd__diode_2
*I *225:DIODE I *D sky130_fd_sc_hd__diode_2
*I *2178:D_N I *D sky130_fd_sc_hd__or4b_2
*I *2355:Q O *D sky130_fd_sc_hd__dfrtp_2
*CAP
1 *2235:A1 0
2 *362:DIODE 0.000190903
3 *2234:A 2.48183e-05
4 *360:DIODE 0.00014556
5 *2237:B 0.000184571
6 *369:DIODE 5.51182e-05
7 *225:DIODE 0
8 *2178:D_N 0.000179786
9 *2355:Q 0.000632186
10 *188:102 0.000334637
11 *188:42 0.00175773
12 *188:34 0.0016777
13 *188:30 0.000640404
14 *188:24 0.000588777
15 *188:22 0.000178404
16 *188:20 0.00143113
17 *188:8 0.00208548
18 *360:DIODE *201:48 0.000192125
19 *362:DIODE *2211:A 0.000157401
20 *362:DIODE *2211:D 6.88279e-05
21 *2234:A *201:48 2.05056e-05
22 *2237:B *213:58 0.000119246
23 *188:22 *201:54 0
24 *188:42 *219:24 0.000339027
25 *188:102 *2211:C 1.19028e-05
26 *365:DIODE *362:DIODE 0.00015856
27 *2198:A *188:20 0.000863204
28 *2227:B *188:42 7.5183e-05
29 *2234:B *188:22 8.53113e-06
30 *2234:B *188:24 6.97124e-05
31 *2234:B *188:30 9.14049e-05
32 *2235:A2 *188:102 0.000151985
33 *2276:A *2178:D_N 7.18893e-05
34 *2276:A *188:42 9.49193e-05
35 *2355:D *188:102 1.08758e-05
36 *2355:RESET_B *188:8 8.91559e-05
37 *2359:D *2234:A 8.23457e-05
38 *2359:RESET_B *188:20 0.000226446
39 *2367:D *188:30 0.000836958
40 *2367:D *188:34 8.95088e-05
41 *18:10 *362:DIODE 6.4816e-05
42 *18:10 *188:20 0
43 *74:10 *188:20 0.000374449
44 *90:24 *188:20 0.000604434
45 *100:46 *188:42 0.000532132
46 *105:18 *2237:B 0.000210667
47 *120:18 *188:24 1.44779e-05
48 *120:18 *188:30 0.000372575
49 *120:18 *188:34 3.01255e-05
50 *122:22 *188:42 0
51 *125:26 *188:42 0.000228745
52 *127:26 *188:42 0.000199761
53 *131:44 *2234:A 4.66108e-05
54 *131:44 *188:22 0.000165373
55 *131:44 *188:24 2.82887e-05
56 *138:32 *362:DIODE 1.5379e-05
57 *166:30 *369:DIODE 8.33341e-05
58 *166:30 *188:42 0.000744642
59 *172:62 *188:20 0.000120655
60 *176:74 *188:8 2.49909e-05
61 *176:82 *188:20 0.00152141
62 *176:102 *362:DIODE 6.54361e-06
63 *176:102 *188:20 5.05981e-05
64 *176:102 *188:102 8.27307e-05
65 *179:118 *188:42 0.00017765
66 *179:129 *188:42 0.000173161
67 *179:142 *188:42 0.00121269
68 *185:84 *188:20 0.00231635
69 *185:84 *188:102 9.0501e-05
70 *185:114 *362:DIODE 0.000119251
71 *186:10 *188:20 0.000113509
72 *186:36 *188:20 0.000552996
*RES
1 *2355:Q *188:8 10.605 
2 *188:8 *188:20 48.145 
3 *188:20 *188:22 2.145 
4 *188:22 *188:24 0.87 
5 *188:24 *188:30 11.88 
6 *188:30 *188:34 3.125 
7 *188:34 *188:42 35.68 
8 *188:42 *2178:D_N 8.12 
9 *188:42 *225:DIODE 1.6 
10 *188:34 *369:DIODE 2.395 
11 *188:30 *2237:B 7.155 
12 *188:24 *360:DIODE 5.43 
13 *188:22 *2234:A 4.395 
14 *188:8 *188:102 5.225 
15 *188:102 *362:DIODE 10.1 
16 *188:102 *2235:A1 1.6 
*END

*D_NET *189 0.0255193
*CONN
*I *366:DIODE I *D sky130_fd_sc_hd__diode_2
*I *2236:A I *D sky130_fd_sc_hd__xnor2_2
*I *222:DIODE I *D sky130_fd_sc_hd__diode_2
*I *2178:A I *D sky130_fd_sc_hd__or4b_2
*I *2237:A I *D sky130_fd_sc_hd__and4_1
*I *368:DIODE I *D sky130_fd_sc_hd__diode_2
*I *2356:Q O *D sky130_fd_sc_hd__dfrtp_4
*CAP
1 *366:DIODE 0
2 *2236:A 0.000224523
3 *222:DIODE 0
4 *2178:A 0.000146345
5 *2237:A 0
6 *368:DIODE 2.89988e-05
7 *2356:Q 0.00124327
8 *189:70 0.000260471
9 *189:64 0.000446012
10 *189:60 0.00159434
11 *189:32 5.28241e-05
12 *189:30 0.00195297
13 *189:28 0.00238013
14 *189:16 0.00318123
15 *2178:A *2178:C 0.000464638
16 *2178:A *194:75 0.0001615
17 *2236:A *193:10 0
18 *189:28 *2273:A1 0.000205123
19 *189:28 *206:46 0.000377168
20 *189:30 *214:22 4.6761e-05
21 *189:60 *193:10 3.4007e-05
22 *189:60 *195:72 0
23 *189:60 *213:30 4.78032e-05
24 *189:70 *194:75 3.75203e-05
25 *536:DIODE *189:28 4.66108e-05
26 *2236:B *2236:A 1.91597e-05
27 *2273:A2 *189:28 0.000337228
28 *2276:A *189:60 3.69049e-05
29 *2276:A *189:64 0.000159179
30 *2276:B *2178:A 8.52972e-05
31 *2278:A2 *189:60 8.64599e-05
32 *2279:B *189:60 0.000450429
33 *2356:CLK *189:16 0.000118081
34 *2356:D *189:16 0.000260834
35 *2356:RESET_B *189:16 9.77001e-05
36 *2362:D *189:16 0.000208484
37 *2369:D *2178:A 0.00023549
38 *2369:D *189:70 4.77769e-05
39 *2377:RESET_B *189:30 5.73726e-05
40 *17:24 *189:28 0.000833852
41 *26:12 *2236:A 0.000160338
42 *26:38 *189:16 7.06865e-05
43 *28:28 *189:16 0.000310822
44 *39:28 *189:28 0.000732111
45 *47:12 *189:28 0.000161953
46 *90:24 *2178:A 7.69525e-05
47 *90:24 *2236:A 8.26725e-05
48 *90:24 *189:70 0.000177148
49 *105:18 *368:DIODE 4.66108e-05
50 *105:18 *189:30 0.000484348
51 *105:18 *189:32 4.66108e-05
52 *106:14 *189:60 0.001167
53 *109:22 *189:16 0.000886918
54 *110:14 *189:28 0.000344377
55 *116:14 *189:60 0.000638273
56 *122:37 *2236:A 5.90512e-05
57 *126:12 *189:16 0.00187259
58 *126:40 *189:16 0.000217345
59 *159:40 *189:60 0.000249736
60 *162:8 *189:28 0.000192461
61 *166:66 *189:28 0.000877595
62 *169:44 *189:28 0.000192461
63 *174:16 *189:28 7.32625e-05
64 *174:18 *189:28 0.00012103
65 *179:118 *189:70 0.000111293
66 *184:54 *189:60 0.000199125
*RES
1 *2356:Q *189:16 39.38 
2 *189:16 *189:28 46.9 
3 *189:28 *189:30 7.35 
4 *189:30 *189:32 0.45 
5 *189:32 *368:DIODE 2.05 
6 *189:32 *2237:A 1.6 
7 *189:30 *189:60 37.145 
8 *189:60 *189:64 3.485 
9 *189:64 *189:70 5.105 
10 *189:70 *2178:A 8.05 
11 *189:70 *222:DIODE 1.6 
12 *189:64 *2236:A 7.965 
13 *189:60 *366:DIODE 1.6 
*END

*D_NET *190 0.0263518
*CONN
*I *2180:B I *D sky130_fd_sc_hd__or4_1
*I *231:DIODE I *D sky130_fd_sc_hd__diode_2
*I *2245:B I *D sky130_fd_sc_hd__nand4_2
*I *387:DIODE I *D sky130_fd_sc_hd__diode_2
*I *2241:A1 I *D sky130_fd_sc_hd__a21oi_1
*I *377:DIODE I *D sky130_fd_sc_hd__diode_2
*I *375:DIODE I *D sky130_fd_sc_hd__diode_2
*I *381:DIODE I *D sky130_fd_sc_hd__diode_2
*I *2242:B I *D sky130_fd_sc_hd__and3_2
*I *2240:A I *D sky130_fd_sc_hd__xor2_1
*I *395:DIODE I *D sky130_fd_sc_hd__diode_2
*I *2249:B I *D sky130_fd_sc_hd__and4_2
*I *2357:Q O *D sky130_fd_sc_hd__dfrtp_4
*CAP
1 *2180:B 0.000101225
2 *231:DIODE 0
3 *2245:B 0.000125605
4 *387:DIODE 0
5 *2241:A1 0.000142394
6 *377:DIODE 0
7 *375:DIODE 0
8 *381:DIODE 5.51691e-05
9 *2242:B 8.88903e-05
10 *2240:A 0
11 *395:DIODE 0.00015056
12 *2249:B 0.000139718
13 *2357:Q 4.41451e-05
14 *190:138 0.000112706
15 *190:118 0.000578565
16 *190:88 0.000518558
17 *190:63 0.000504002
18 *190:52 0.000584648
19 *190:46 0.00250317
20 *190:44 0.00339521
21 *190:38 0.00137241
22 *190:34 0.000357785
23 *190:16 0.000828447
24 *190:6 0.000749753
25 *395:DIODE *2249:D 8.35106e-05
26 *395:DIODE *215:16 1.58398e-05
27 *2180:B *2180:D 4.66108e-05
28 *2180:B *191:90 0.000139245
29 *2180:B *217:32 7.40446e-05
30 *2241:A1 *208:38 7.23602e-05
31 *2249:B *2249:C 4.36422e-06
32 *2249:B *2249:D 8.51455e-05
33 *2249:B *215:16 1.81918e-05
34 *190:6 *217:26 8.62564e-05
35 *190:34 *217:26 0.00022042
36 *190:34 *217:32 1.08758e-05
37 *190:38 *191:90 0.000245006
38 *190:38 *208:36 0.000451365
39 *190:44 *191:90 4.98237e-05
40 *190:44 *204:82 0
41 *190:44 *208:36 0.00127925
42 *190:88 *208:38 0
43 *190:88 *213:12 0.000179687
44 *190:118 *2245:A 4.66108e-05
45 *190:118 *191:112 0.000336741
46 *190:118 *205:64 8.86692e-05
47 *190:138 *217:32 3.74161e-05
48 *2193:A *190:44 5.05223e-05
49 *2281:B *395:DIODE 1.56428e-05
50 *2289:C *2241:A1 4.65119e-05
51 *2341:D *190:44 0.000106724
52 *2377:D *190:16 0.000907766
53 *26:32 *190:16 2.43962e-05
54 *35:30 *190:44 0.000153816
55 *35:30 *190:46 0.00233908
56 *41:22 *190:88 0.00022797
57 *48:16 *190:118 0.00033764
58 *51:16 *190:16 0.00041864
59 *73:18 *2245:B 0.000119866
60 *73:18 *190:118 0.000483149
61 *75:38 *2245:B 8.27734e-05
62 *95:24 *190:16 0
63 *115:38 *190:52 5.16418e-05
64 *115:38 *190:63 0.00116043
65 *116:14 *190:52 5.33085e-05
66 *116:14 *190:63 0.0011505
67 *123:20 *190:44 5.19125e-05
68 *134:47 *190:88 0.000256668
69 *134:65 *190:44 2.03321e-05
70 *134:105 *190:44 1.61461e-05
71 *138:28 *2245:B 0.00015625
72 *143:12 *190:46 0.000708288
73 *143:12 *190:52 0.000309612
74 *143:24 *190:46 9.98725e-05
75 *151:96 *190:88 0
76 *166:66 *2180:B 0.000137571
77 *166:66 *190:44 4.25189e-05
78 *169:40 *381:DIODE 8.40269e-05
79 *169:40 *2242:B 0.000120655
80 *169:100 *190:44 6.75314e-05
81 *172:46 *2180:B 3.03684e-05
82 *172:46 *190:34 9.09197e-05
83 *172:46 *190:138 1.83847e-05
84 *173:18 *190:16 0.000161849
85 *174:165 *190:6 0.000121019
86 *174:165 *190:16 5.83121e-06
87 *175:64 *190:44 0
88 *180:58 *190:118 9.0336e-05
89 *183:43 *2241:A1 1.16578e-05
90 *183:51 *2241:A1 7.06865e-05
91 *183:51 *190:88 2.46089e-05
*RES
1 *2357:Q *190:6 3.085 
2 *190:6 *190:16 16.39 
3 *190:16 *2249:B 3.445 
4 *190:16 *395:DIODE 3.43 
5 *190:6 *190:34 3.9 
6 *190:34 *190:38 7.46 
7 *190:38 *190:44 19.145 
8 *190:44 *190:46 30.12 
9 *190:46 *190:52 5.48 
10 *190:52 *2240:A 3.6 
11 *190:52 *190:63 15.875 
12 *190:63 *2242:B 2.74 
13 *190:63 *381:DIODE 2.395 
14 *190:46 *375:DIODE 1.6 
15 *190:44 *190:88 13.03 
16 *190:88 *377:DIODE 1.6 
17 *190:88 *2241:A1 7.955 
18 *190:38 *190:118 14.925 
19 *190:118 *387:DIODE 1.6 
20 *190:118 *2245:B 8.63 
21 *190:34 *190:138 0.45 
22 *190:138 *231:DIODE 1.6 
23 *190:138 *2180:B 8.48 
*END

*D_NET *191 0.034903
*CONN
*I *230:DIODE I *D sky130_fd_sc_hd__diode_2
*I *2180:A I *D sky130_fd_sc_hd__or4_1
*I *2245:A I *D sky130_fd_sc_hd__nand4_2
*I *386:DIODE I *D sky130_fd_sc_hd__diode_2
*I *2241:B1 I *D sky130_fd_sc_hd__a21oi_1
*I *379:DIODE I *D sky130_fd_sc_hd__diode_2
*I *2249:A I *D sky130_fd_sc_hd__and4_2
*I *394:DIODE I *D sky130_fd_sc_hd__diode_2
*I *380:DIODE I *D sky130_fd_sc_hd__diode_2
*I *2242:A I *D sky130_fd_sc_hd__and3_2
*I *2358:Q O *D sky130_fd_sc_hd__dfrtp_4
*CAP
1 *230:DIODE 0
2 *2180:A 1.95988e-05
3 *2245:A 0.000218139
4 *386:DIODE 0
5 *2241:B1 0
6 *379:DIODE 9.56605e-05
7 *2249:A 3.23313e-05
8 *394:DIODE 0
9 *380:DIODE 0.000214914
10 *2242:A 8.36055e-05
11 *2358:Q 0.00136549
12 *191:112 0.000556386
13 *191:98 0.00083043
14 *191:90 0.00152801
15 *191:82 0.000524715
16 *191:74 0.00137476
17 *191:52 0.000454122
18 *191:40 0.00331448
19 *191:16 0.000534888
20 *191:14 0.0021328
21 *191:12 0.00169386
22 *380:DIODE *201:22 8.03557e-05
23 *380:DIODE *201:31 4.66108e-05
24 *2180:A *2180:D 4.21973e-05
25 *2245:A *2245:C 2.54431e-05
26 *2249:A *2249:C 8.60799e-05
27 *191:12 *193:50 2.3087e-05
28 *191:14 *193:50 0
29 *191:40 *195:50 0.000268319
30 *191:52 *2249:C 0.000292997
31 *191:52 *192:38 0.000585577
32 *191:52 *192:61 0.000122797
33 *191:52 *193:22 0.000489749
34 *191:74 *2210:A 5.83121e-06
35 *191:74 *197:20 0.000235783
36 *191:82 *2180:D 5.05437e-05
37 *191:90 *250:DIODE 0.000118081
38 *191:90 *208:36 2.86145e-05
39 *191:98 *194:20 0.000191841
40 *191:98 *194:41 9.7579e-06
41 *191:98 *204:82 0.0015899
42 *191:98 *208:38 0
43 *378:DIODE *379:DIODE 0.000112349
44 *378:DIODE *191:98 0.00012657
45 *2180:B *191:90 0.000139245
46 *2182:C *191:82 4.28112e-06
47 *2248:B_N *191:12 0.000179071
48 *2341:RESET_B *2245:A 6.76754e-05
49 *2359:RESET_B *191:16 0.000138551
50 *16:10 *2245:A 0.000178314
51 *19:10 *191:52 0.000547492
52 *31:24 *191:12 0.000479133
53 *48:8 *2242:A 4.82919e-05
54 *55:20 *191:74 0.000234487
55 *56:20 *191:52 0.000548779
56 *73:18 *191:90 1.91597e-05
57 *73:18 *191:112 5.88334e-05
58 *106:10 *191:14 6.99988e-05
59 *106:168 *191:14 0.000179876
60 *112:24 *191:12 0.000331389
61 *113:32 *2242:A 4.99619e-05
62 *114:8 *191:40 0.000865449
63 *114:8 *191:74 0.00014576
64 *115:14 *191:12 0.00241105
65 *115:14 *191:14 0.000225809
66 *115:60 *191:52 0.000170283
67 *115:112 *191:12 0.000527895
68 *116:14 *2242:A 0.000107366
69 *116:14 *191:16 5.61585e-05
70 *116:72 *191:14 0.000313952
71 *116:72 *191:16 0.000287302
72 *119:38 *191:74 6.07575e-06
73 *126:22 *379:DIODE 8.82557e-05
74 *134:47 *379:DIODE 4.99619e-05
75 *134:105 *191:90 0.000173217
76 *138:28 *2245:A 5.37755e-05
77 *141:36 *191:40 0.000228871
78 *141:36 *191:52 0.000119246
79 *144:56 *2242:A 0.000198746
80 *144:56 *191:14 0.000211491
81 *144:56 *191:16 0.00075652
82 *149:30 *191:52 0.000126376
83 *158:24 *191:12 0.000333901
84 *158:24 *191:14 0.000130512
85 *158:24 *191:16 0.000116231
86 *166:66 *191:82 0
87 *166:66 *191:90 0.00023891
88 *169:100 *191:90 8.53113e-06
89 *180:58 *191:98 1.88337e-05
90 *181:78 *191:98 2.05056e-05
91 *182:26 *191:82 4.85118e-05
92 *182:26 *191:90 7.23961e-06
93 *183:12 *2245:A 1.74977e-05
94 *183:33 *191:98 0.00014246
95 *183:37 *191:98 0.00144726
96 *183:51 *379:DIODE 0.000198939
97 *183:150 *2245:A 6.54596e-05
98 *187:20 *2180:A 8.49205e-05
99 *187:20 *191:74 0.00135539
100 *187:20 *191:82 8.49205e-05
101 *190:38 *191:90 0.000245006
102 *190:44 *191:90 4.98237e-05
103 *190:118 *2245:A 4.66108e-05
104 *190:118 *191:112 0.000336741
*RES
1 *2358:Q *191:12 41.31 
2 *191:12 *191:14 9.54 
3 *191:14 *191:16 9.03 
4 *191:16 *2242:A 6.45 
5 *191:16 *380:DIODE 6.12 
6 *191:14 *191:40 21.425 
7 *191:40 *191:52 19.675 
8 *191:52 *394:DIODE 1.6 
9 *191:52 *2249:A 2.395 
10 *191:40 *191:74 22.645 
11 *191:74 *191:82 5.41 
12 *191:82 *191:90 14.515 
13 *191:90 *191:98 27.775 
14 *191:98 *379:DIODE 4.465 
15 *191:98 *2241:B1 1.6 
16 *191:90 *191:112 4.245 
17 *191:112 *386:DIODE 1.6 
18 *191:112 *2245:A 9.95 
19 *191:82 *2180:A 2.395 
20 *191:74 *230:DIODE 1.6 
*END

*D_NET *192 0.0424184
*CONN
*I *384:DIODE I *D sky130_fd_sc_hd__diode_2
*I *2244:A I *D sky130_fd_sc_hd__or2_1
*I *227:DIODE I *D sky130_fd_sc_hd__diode_2
*I *2179:B I *D sky130_fd_sc_hd__nand4_1
*I *388:DIODE I *D sky130_fd_sc_hd__diode_2
*I *2245:C I *D sky130_fd_sc_hd__nand4_2
*I *2249:D I *D sky130_fd_sc_hd__and4_2
*I *397:DIODE I *D sky130_fd_sc_hd__diode_2
*I *2359:Q O *D sky130_fd_sc_hd__dfrtp_4
*CAP
1 *384:DIODE 0.000157464
2 *2244:A 9.73191e-06
3 *227:DIODE 0.000166832
4 *2179:B 0
5 *388:DIODE 0
6 *2245:C 0.000264187
7 *2249:D 0.000155505
8 *397:DIODE 0
9 *2359:Q 0.000652453
10 *192:140 0.00142664
11 *192:126 0.00180063
12 *192:120 0.00341823
13 *192:92 0.000975056
14 *192:76 0.0034766
15 *192:61 0.001718
16 *192:38 0.00312901
17 *192:26 0.0044597
18 *384:DIODE *2216:A 0
19 *2244:A *2216:B 4.82863e-05
20 *2249:D *215:16 6.11706e-05
21 *192:38 *198:68 2.25075e-05
22 *192:38 *206:46 0.000258563
23 *192:38 *210:90 0.000320719
24 *192:61 *206:56 0.000113409
25 *192:61 *206:88 6.21553e-05
26 *192:120 *211:60 0.00061153
27 *192:126 *2179:C 1.33293e-05
28 *192:126 *2179:D 0.000142669
29 *192:126 *2207:A 3.96496e-05
30 *192:126 *2253:A 0.000136877
31 *192:126 *211:60 0.000609269
32 *192:126 *211:118 4.76659e-05
33 *192:126 *213:152 3.86607e-05
34 *192:126 *214:106 6.28843e-05
35 *385:DIODE *384:DIODE 5.72829e-05
36 *385:DIODE *192:140 4.18603e-06
37 *395:DIODE *2249:D 8.35106e-05
38 *2207:B *192:126 7.00436e-05
39 *2239:A *192:61 9.7754e-05
40 *2245:A *2245:C 2.54431e-05
41 *2249:B *2249:D 8.51455e-05
42 *2259:B *192:26 0.00015639
43 *2341:RESET_B *2245:C 0.000100649
44 *2361:D *192:26 5.83121e-06
45 *2368:D *2249:D 0.00032583
46 *2377:D *2249:D 0.000323087
47 *16:10 *192:92 0.000348518
48 *26:12 *192:26 0.00056873
49 *33:26 *2245:C 8.53224e-05
50 *36:30 *192:92 0.000163314
51 *57:14 *192:61 3.35934e-05
52 *57:14 *192:76 0.000105103
53 *57:14 *192:120 0.000106067
54 *58:18 *192:126 0
55 *67:26 *192:120 0.000147465
56 *67:26 *192:126 0.000254062
57 *73:12 *192:38 0.000827604
58 *75:28 *192:38 0.00119578
59 *81:14 *192:126 0
60 *94:20 *192:61 0
61 *95:24 *192:61 0.000325841
62 *100:75 *192:26 0.000659953
63 *100:75 *192:140 0.00042001
64 *103:14 *192:92 0.000856981
65 *106:134 *384:DIODE 0.000163204
66 *109:16 *192:126 0
67 *109:20 *192:126 0
68 *109:22 *192:126 0
69 *112:10 *192:126 0.000231133
70 *115:60 *192:38 0.000226961
71 *118:24 *2244:A 4.82863e-05
72 *119:119 *192:126 0.000157595
73 *119:133 *192:120 0.0005944
74 *119:133 *192:126 0.000902339
75 *125:24 *192:26 8.75474e-05
76 *125:24 *192:140 0.000660274
77 *127:26 *192:26 0.000150466
78 *127:26 *192:140 0.000167303
79 *129:12 *192:140 4.84138e-05
80 *132:28 *192:92 0.000118081
81 *134:75 *2245:C 0.000497434
82 *134:224 *192:26 0.000113972
83 *136:16 *192:26 4.58889e-05
84 *136:16 *192:140 0.000109333
85 *138:28 *2245:C 1.19928e-05
86 *141:8 *192:61 0
87 *141:36 *192:61 3.14677e-05
88 *147:10 *192:26 0.00065662
89 *147:10 *192:140 0.00112126
90 *156:65 *2245:C 0.000214647
91 *156:65 *192:92 0.000421778
92 *171:170 *384:DIODE 0
93 *171:180 *384:DIODE 0.000163204
94 *177:170 *192:126 0
95 *178:48 *2245:C 0.000214647
96 *178:48 *192:92 0.000788351
97 *178:74 *192:92 0.000598156
98 *179:170 *192:26 0.000210949
99 *179:181 *192:26 0.000126927
100 *179:194 *192:26 0.00034164
101 *179:194 *192:140 0
102 *183:150 *192:92 0.000185795
103 *186:60 *192:140 0
104 *187:36 *192:26 3.64998e-06
105 *187:78 *192:140 0.000463467
106 *191:52 *192:38 0.000585577
107 *191:52 *192:61 0.000122797
*RES
1 *2359:Q *192:26 33.02 
2 *192:26 *192:38 41.88 
3 *192:38 *397:DIODE 1.6 
4 *192:38 *192:61 13.5395 
5 *192:61 *2249:D 11.015 
6 *192:61 *192:76 10.11 
7 *192:76 *192:92 29.07 
8 *192:92 *2245:C 11.205 
9 *192:92 *388:DIODE 3.6 
10 *192:76 *192:120 26.2325 
11 *192:120 *192:126 37.9925 
12 *192:126 *2179:B 1.6 
13 *192:126 *227:DIODE 3.43 
14 *192:26 *192:140 33 
15 *192:140 *2244:A 4.05 
16 *192:140 *384:DIODE 7.485 
*END

*D_NET *193 0.0345316
*CONN
*I *2179:A I *D sky130_fd_sc_hd__nand4_1
*I *226:DIODE I *D sky130_fd_sc_hd__diode_2
*I *2248:A I *D sky130_fd_sc_hd__or2b_1
*I *392:DIODE I *D sky130_fd_sc_hd__diode_2
*I *2249:C I *D sky130_fd_sc_hd__and4_2
*I *396:DIODE I *D sky130_fd_sc_hd__diode_2
*I *2360:Q O *D sky130_fd_sc_hd__dfrtp_4
*CAP
1 *2179:A 0.000328087
2 *226:DIODE 0
3 *2248:A 0
4 *392:DIODE 0.000101191
5 *2249:C 0.000196901
6 *396:DIODE 0
7 *2360:Q 0.0001004
8 *193:74 0.00347506
9 *193:72 0.0038432
10 *193:59 0.000773655
11 *193:50 0.00145203
12 *193:22 0.00168451
13 *193:10 0.00450068
14 *193:8 0.00184006
15 *2179:A *213:146 4.05674e-06
16 *2249:C *215:16 0.000454103
17 *193:10 *2221:A1 5.07376e-05
18 *193:22 *214:53 0.000357227
19 *193:22 *215:16 0.00061837
20 *193:50 *214:68 0.000473258
21 *193:72 *2211:D 3.64998e-06
22 *193:72 *214:68 0
23 *193:72 *214:87 0
24 *193:72 *214:98 0
25 *193:74 *213:146 4.87317e-05
26 *193:74 *214:100 0.00364585
27 *2182:B *2179:A 6.73751e-05
28 *2221:A2 *193:50 3.49165e-05
29 *2236:A *193:10 0
30 *2236:B *193:10 4.40899e-05
31 *2239:A *193:10 0.000393664
32 *2239:A *193:22 0.00224998
33 *2249:A *2249:C 8.60799e-05
34 *2249:B *2249:C 4.36422e-06
35 *2298:A *193:10 0.00149882
36 *2358:D *193:72 2.10433e-05
37 *2358:RESET_B *193:50 0.000662857
38 *18:10 *193:72 0
39 *19:10 *193:22 1.7635e-05
40 *26:12 *193:10 0
41 *31:24 *193:50 6.17895e-06
42 *31:24 *193:72 0
43 *33:16 *193:10 0.000199961
44 *56:20 *193:22 1.88602e-05
45 *81:14 *2179:A 8.66976e-06
46 *104:34 *193:72 0.000144228
47 *106:10 *193:10 0.000278367
48 *106:14 *193:10 0.00141419
49 *106:168 *193:10 0.000106641
50 *106:168 *193:50 5.10156e-05
51 *115:14 *193:72 6.80123e-05
52 *115:112 *193:72 0.000190507
53 *131:18 *193:10 0.000481661
54 *136:10 *193:10 0.000106344
55 *140:12 *392:DIODE 4.77769e-05
56 *141:8 *2249:C 1.1315e-05
57 *141:36 *193:22 0.000119756
58 *158:24 *193:10 0.000274751
59 *169:34 *193:10 1.73877e-05
60 *169:34 *193:50 0.000795002
61 *179:118 *193:10 3.79514e-05
62 *184:38 *193:72 0.000280612
63 *185:114 *193:72 0
64 *189:60 *193:10 3.4007e-05
65 *191:12 *193:50 2.3087e-05
66 *191:14 *193:50 0
67 *191:52 *2249:C 0.000292997
68 *191:52 *193:22 0.000489749
*RES
1 *2360:Q *193:8 5.085 
2 *193:8 *193:10 49.1925 
3 *193:10 *193:22 12.7365 
4 *193:22 *396:DIODE 1.6 
5 *193:22 *2249:C 10.91 
6 *193:10 *193:50 32.3675 
7 *193:50 *392:DIODE 2.74 
8 *193:50 *193:59 0.795 
9 *193:59 *2248:A 1.6 
10 *193:59 *193:72 16.39 
11 *193:72 *193:74 57.72 
12 *193:74 *226:DIODE 1.6 
13 *193:74 *2179:A 10.865 
*END

*D_NET *194 0.0275528
*CONN
*I *266:DIODE I *D sky130_fd_sc_hd__diode_2
*I *2192:B I *D sky130_fd_sc_hd__or2_1
*I *264:DIODE I *D sky130_fd_sc_hd__diode_2
*I *277:DIODE I *D sky130_fd_sc_hd__diode_2
*I *2199:A2 I *D sky130_fd_sc_hd__a31o_1
*I *2197:B I *D sky130_fd_sc_hd__and4_1
*I *273:DIODE I *D sky130_fd_sc_hd__diode_2
*I *224:DIODE I *D sky130_fd_sc_hd__diode_2
*I *2178:C I *D sky130_fd_sc_hd__or4b_2
*I *2193:B I *D sky130_fd_sc_hd__nand2_2
*I *2342:Q O *D sky130_fd_sc_hd__dfrtp_4
*CAP
1 *266:DIODE 3.69588e-05
2 *2192:B 3.75704e-05
3 *264:DIODE 0.000236128
4 *277:DIODE 0
5 *2199:A2 0
6 *2197:B 9.36964e-05
7 *273:DIODE 3.37765e-05
8 *224:DIODE 0
9 *2178:C 0.000164182
10 *2193:B 0.00037917
11 *2342:Q 0.00216321
12 *194:95 0.000352836
13 *194:75 0.000566888
14 *194:73 0.00173358
15 *194:61 0.00143791
16 *194:55 0.000437661
17 *194:49 0.000378258
18 *194:47 0.000757109
19 *194:41 0.000872618
20 *194:20 0.00269537
21 *2193:B *213:182 0.000100134
22 *2197:B *2197:D 0.000193801
23 *194:20 *204:76 3.12319e-05
24 *194:20 *204:82 0.000101948
25 *194:20 *205:64 1.3858e-05
26 *194:41 *205:64 0.000222824
27 *194:47 *205:14 0.000286248
28 *194:47 *205:64 0.00105446
29 *194:47 *208:38 0
30 *194:49 *205:14 2.22429e-05
31 *194:49 *208:38 0
32 *194:55 *205:14 3.54721e-05
33 *194:61 *279:DIODE 8.34281e-06
34 *194:61 *208:66 8.23457e-05
35 *194:73 *205:22 4.87939e-05
36 *194:73 *205:28 0.00117089
37 *194:95 *205:28 0
38 *263:DIODE *2192:B 1.62913e-05
39 *276:DIODE *194:73 8.23457e-05
40 *528:DIODE *194:73 7.30505e-05
41 *559:DIODE *194:20 0.000340209
42 *2178:A *2178:C 0.000464638
43 *2178:A *194:75 0.0001615
44 *2178:B *2178:C 0.000235352
45 *2289:C *264:DIODE 0.000342594
46 *2289:C *2192:B 8.52972e-05
47 *2342:CLK *194:20 1.91597e-05
48 *2342:D *194:20 0.000114361
49 *2342:RESET_B *194:20 0.00147121
50 *2369:D *194:73 0.00022496
51 *2369:D *194:75 0.000249049
52 *2381:A *2193:B 8.23457e-05
53 *17:24 *266:DIODE 4.66108e-05
54 *21:22 *273:DIODE 4.77807e-05
55 *21:22 *2197:B 8.06242e-05
56 *39:28 *2193:B 0.000100652
57 *75:38 *2193:B 0
58 *119:44 *2197:B 4.77769e-05
59 *130:52 *194:20 8.40269e-05
60 *134:105 *194:20 5.58206e-05
61 *143:24 *194:47 0.000360846
62 *151:96 *2193:B 8.35118e-05
63 *153:22 *2193:B 0.000169575
64 *162:8 *2197:B 3.46328e-05
65 *162:8 *194:95 3.89366e-05
66 *171:92 *194:73 0.000103809
67 *179:104 *194:55 4.42148e-05
68 *179:104 *194:61 9.32439e-05
69 *179:104 *194:73 1.07593e-05
70 *179:104 *194:75 0.000635166
71 *179:118 *194:75 0.00109061
72 *180:58 *194:20 0.00037971
73 *180:58 *194:41 0.000173646
74 *180:58 *194:47 0.000337575
75 *183:37 *194:47 0.000706156
76 *183:43 *2192:B 2.88357e-05
77 *183:67 *2178:C 0.000242731
78 *183:67 *194:75 0.00226788
79 *183:67 *194:95 7.70995e-05
80 *183:101 *194:61 0.000236071
81 *183:101 *194:73 9.12494e-06
82 *183:125 *2192:B 1.43558e-05
83 *189:70 *194:75 3.75203e-05
84 *191:98 *194:20 0.000191841
85 *191:98 *194:41 9.7579e-06
*RES
1 *2342:Q *194:20 38.9625 
2 *194:20 *2193:B 7.32643 
3 *194:20 *194:41 3.5775 
4 *194:41 *194:47 19.785 
5 *194:47 *194:49 0.615 
6 *194:49 *194:55 3.665 
7 *194:55 *194:61 7.43 
8 *194:61 *194:73 20.45 
9 *194:73 *194:75 22.185 
10 *194:75 *2178:C 7.51 
11 *194:75 *224:DIODE 1.6 
12 *194:73 *194:95 5.675 
13 *194:95 *273:DIODE 4.05 
14 *194:95 *2197:B 6.3 
15 *194:61 *2199:A2 3.6 
16 *194:55 *277:DIODE 1.6 
17 *194:49 *264:DIODE 6.81 
18 *194:47 *2192:B 4.755 
19 *194:41 *266:DIODE 4.05 
*END

*D_NET *195 0.0376974
*CONN
*I *2254:B1 I *D sky130_fd_sc_hd__a21oi_1
*I *408:DIODE I *D sky130_fd_sc_hd__diode_2
*I *403:DIODE I *D sky130_fd_sc_hd__diode_2
*I *2253:A I *D sky130_fd_sc_hd__and3_2
*I *2180:D I *D sky130_fd_sc_hd__or4_1
*I *233:DIODE I *D sky130_fd_sc_hd__diode_2
*I *2262:B I *D sky130_fd_sc_hd__and3_1
*I *425:DIODE I *D sky130_fd_sc_hd__diode_2
*I *2361:Q O *D sky130_fd_sc_hd__dfrtp_4
*CAP
1 *2254:B1 0.000210428
2 *408:DIODE 0
3 *403:DIODE 0
4 *2253:A 0.000163626
5 *2180:D 0.00025249
6 *233:DIODE 0
7 *2262:B 0
8 *425:DIODE 7.95498e-05
9 *2361:Q 0.000240537
10 *195:156 0.000700535
11 *195:132 0.00180584
12 *195:120 0.00383934
13 *195:90 0.00198653
14 *195:72 0.00172735
15 *195:50 0.00471559
16 *195:6 0.00328131
17 *2180:D *2180:C 4.83317e-05
18 *2180:D *196:72 3.64998e-06
19 *2253:A *211:60 0.00013521
20 *2254:B1 *210:58 6.97024e-05
21 *195:50 *213:92 0.000543112
22 *195:72 *209:14 9.64235e-05
23 *195:72 *213:30 0
24 *195:120 *237:DIODE 2.21948e-05
25 *195:120 *2181:C 0.000268432
26 *195:120 *2181:D_N 9.12671e-06
27 *195:120 *197:46 5.02382e-05
28 *195:120 *199:92 6.72833e-06
29 *195:120 *212:12 0.0013036
30 *195:132 *2270:A 7.9642e-06
31 *195:156 *210:58 9.35484e-05
32 *195:156 *212:10 0.000442588
33 *195:156 *212:12 0.000370186
34 *406:DIODE *2254:B1 4.87905e-05
35 *407:DIODE *2254:B1 0.00019898
36 *2180:A *2180:D 4.21973e-05
37 *2180:B *2180:D 4.66108e-05
38 *2230:B *2253:A 0.000120655
39 *2230:C *2253:A 2.16917e-05
40 *2230:D *2253:A 4.77719e-05
41 *2253:B *2253:A 2.01259e-05
42 *2259:B *195:50 0.000110165
43 *2259:B *195:90 0.000155022
44 *2361:RESET_B *195:6 0.000271562
45 *2361:RESET_B *195:50 0.00028612
46 *2361:RESET_B *195:120 4.77769e-05
47 *29:12 *195:50 0.000196201
48 *35:20 *195:72 8.90199e-05
49 *56:16 *195:132 0.000954035
50 *60:10 *195:120 0.00130325
51 *60:10 *195:156 0.000808469
52 *65:16 *195:132 5.88972e-05
53 *66:32 *195:132 6.75569e-05
54 *67:26 *195:132 0.00290078
55 *71:22 *195:72 0
56 *75:28 *195:90 0.000118081
57 *106:88 *195:132 0.000147122
58 *114:8 *195:50 0.000268153
59 *120:18 *195:72 0.000127938
60 *131:44 *195:50 9.59285e-05
61 *132:28 *195:72 1.92979e-05
62 *146:20 *195:90 0.0015516
63 *149:30 *195:72 0.00146456
64 *151:22 *195:132 0.000757313
65 *153:22 *195:72 0.000462664
66 *181:30 *195:50 8.35106e-05
67 *182:26 *2180:D 0.000121437
68 *182:26 *195:90 0.000299512
69 *182:46 *425:DIODE 0.000123955
70 *182:46 *195:72 3.75126e-05
71 *182:80 *195:50 8.23457e-05
72 *184:54 *195:50 0.000350143
73 *184:54 *195:72 0
74 *184:144 *195:132 0.000569255
75 *184:155 *195:132 0.000186388
76 *187:20 *2180:D 0.000105089
77 *189:60 *195:72 0
78 *191:40 *195:50 0.000268319
79 *191:82 *2180:D 5.05437e-05
80 *192:126 *2253:A 0.000136877
*RES
1 *2361:Q *195:6 6.19 
2 *195:6 *195:50 41.235 
3 *195:50 *195:72 36.25 
4 *195:72 *425:DIODE 2.74 
5 *195:72 *2262:B 1.6 
6 *195:50 *195:90 22.995 
7 *195:90 *233:DIODE 1.6 
8 *195:90 *2180:D 6.58 
9 *195:6 *195:120 35.9675 
10 *195:120 *195:132 16.6053 
11 *195:132 *2253:A 9.41 
12 *195:132 *403:DIODE 1.6 
13 *195:120 *195:156 14.7875 
14 *195:156 *408:DIODE 1.6 
15 *195:156 *2254:B1 5.515 
*END

*D_NET *196 0.0329539
*CONN
*I *232:DIODE I *D sky130_fd_sc_hd__diode_2
*I *416:DIODE I *D sky130_fd_sc_hd__diode_2
*I *2258:A I *D sky130_fd_sc_hd__nand3_2
*I *413:DIODE I *D sky130_fd_sc_hd__diode_2
*I *2257:A1 I *D sky130_fd_sc_hd__a21o_1
*I *2180:C I *D sky130_fd_sc_hd__or4_1
*I *2262:A I *D sky130_fd_sc_hd__and3_1
*I *424:DIODE I *D sky130_fd_sc_hd__diode_2
*I *411:DIODE I *D sky130_fd_sc_hd__diode_2
*I *2256:A I *D sky130_fd_sc_hd__xor2_1
*I *2362:Q O *D sky130_fd_sc_hd__dfrtp_4
*CAP
1 *232:DIODE 0
2 *416:DIODE 0
3 *2258:A 0.000405919
4 *413:DIODE 0.000287558
5 *2257:A1 0
6 *2180:C 6.83497e-05
7 *2262:A 2.01268e-05
8 *424:DIODE 0.000257622
9 *411:DIODE 0
10 *2256:A 0.000277638
11 *2362:Q 0.000608274
12 *196:117 0.00171365
13 *196:95 0.000287558
14 *196:93 0.00167568
15 *196:72 0.000536827
16 *196:70 0.000784618
17 *196:44 0.000826738
18 *196:18 0.000884771
19 *196:16 0.00439754
20 *196:10 0.00453379
21 *2258:A *417:DIODE 8.50801e-06
22 *2258:A *2258:B 0
23 *2258:A *197:68 3.59784e-05
24 *2262:A *198:44 0.000111256
25 *196:16 *199:142 0.000595161
26 *196:44 *198:44 0.000309099
27 *196:44 *218:34 0
28 *196:93 *204:76 0.000176325
29 *414:DIODE *413:DIODE 2.896e-05
30 *2180:D *2180:C 4.83317e-05
31 *2180:D *196:72 3.64998e-06
32 *2182:C *196:93 0.000626852
33 *2182:C *196:117 0.00144105
34 *2224:A *196:44 0.000263556
35 *2258:C *2258:A 8.1871e-05
36 *2258:C *196:117 0.000122325
37 *2294:A *413:DIODE 8.23457e-05
38 *2362:RESET_B *196:10 4.66826e-05
39 *2367:D *196:44 0.000415979
40 *2376:RESET_B *196:93 8.54281e-05
41 *16:10 *196:16 0
42 *33:16 *2256:A 2.76356e-05
43 *33:16 *196:16 0.00095665
44 *33:16 *196:18 0.000293807
45 *33:26 *196:16 0.00129373
46 *42:26 *196:16 0.000163288
47 *42:26 *196:70 0.00010833
48 *48:16 *196:10 0.000710207
49 *71:22 *424:DIODE 9.30717e-05
50 *71:22 *196:44 0
51 *73:18 *196:10 9.47267e-06
52 *75:38 *196:16 0.000982713
53 *120:18 *196:44 0.000255017
54 *122:37 *424:DIODE 0.000313343
55 *131:18 *2256:A 0.000114649
56 *134:16 *2256:A 6.47357e-05
57 *138:28 *196:16 0
58 *138:28 *196:70 0
59 *144:24 *196:117 0.0014348
60 *144:26 *196:117 3.57349e-05
61 *147:8 *2258:A 1.83756e-05
62 *156:140 *413:DIODE 0.000120655
63 *166:66 *196:93 0.000517796
64 *166:77 *196:93 0.000108322
65 *166:77 *196:117 7.23602e-05
66 *166:90 *196:117 0.00137652
67 *167:28 *413:DIODE 0.000119762
68 *169:160 *196:70 0
69 *180:58 *196:93 0.000176325
70 *181:46 *2262:A 0.000122801
71 *181:46 *196:44 0.000307429
72 *183:12 *196:16 0.000135012
73 *183:150 *196:16 0.000238055
74 *183:150 *196:70 0.000587482
75 *186:36 *196:44 0
76 *187:20 *196:70 0.000119631
77 *187:20 *196:72 2.62017e-05
*RES
1 *2362:Q *196:10 11.655 
2 *196:10 *196:16 49.985 
3 *196:16 *196:18 7.35 
4 *196:18 *2256:A 9.5 
5 *196:18 *411:DIODE 1.6 
6 *196:16 *196:44 18.19 
7 *196:44 *424:DIODE 9.59 
8 *196:44 *2262:A 2.74 
9 *196:10 *196:70 13.235 
10 *196:70 *196:72 1.14 
11 *196:72 *2180:C 2.665 
12 *196:72 *196:93 17.13 
13 *196:93 *196:95 2 
14 *196:95 *2257:A1 1.6 
15 *196:95 *413:DIODE 5.965 
16 *196:93 *196:117 34.385 
17 *196:117 *2258:A 6.475 
18 *196:117 *416:DIODE 1.6 
19 *196:70 *232:DIODE 1.6 
*END

*D_NET *197 0.0263581
*CONN
*I *2263:A I *D sky130_fd_sc_hd__and3_1
*I *427:DIODE I *D sky130_fd_sc_hd__diode_2
*I *417:DIODE I *D sky130_fd_sc_hd__diode_2
*I *2258:B I *D sky130_fd_sc_hd__nand3_2
*I *2181:D_N I *D sky130_fd_sc_hd__or4b_1
*I *237:DIODE I *D sky130_fd_sc_hd__diode_2
*I *2257:B1 I *D sky130_fd_sc_hd__a21o_1
*I *415:DIODE I *D sky130_fd_sc_hd__diode_2
*I *2363:Q O *D sky130_fd_sc_hd__dfrtp_4
*CAP
1 *2263:A 9.91229e-05
2 *427:DIODE 0
3 *417:DIODE 0.000197229
4 *2258:B 2.12644e-05
5 *2181:D_N 3.22871e-05
6 *237:DIODE 2.38334e-05
7 *2257:B1 0.000129824
8 *415:DIODE 0
9 *2363:Q 0.0012516
10 *197:90 0.00124203
11 *197:68 0.000326143
12 *197:66 0.00150109
13 *197:46 0.000184343
14 *197:44 0.000732357
15 *197:24 0.000654889
16 *197:20 0.00252358
17 *197:18 0.00289651
18 *197:20 *2197:C 4.74965e-05
19 *197:20 *2292:B1 0
20 *197:20 *198:28 0
21 *197:20 *198:68 0
22 *197:20 *205:28 0.000100858
23 *197:20 *206:46 8.39214e-05
24 *197:20 *210:90 0.00169869
25 *197:20 *220:59 0
26 *197:20 *220:73 0
27 *197:44 *2181:B 0.00014891
28 *197:44 *2181:C 0.000159173
29 *197:44 *210:90 0.000835385
30 *197:46 *2181:B 4.77757e-05
31 *197:46 *2181:C 8.23457e-05
32 *197:66 *234:DIODE 0.000112589
33 *197:66 *198:68 5.0096e-05
34 *2182:D *197:66 0.000458639
35 *2188:B *197:20 8.89169e-05
36 *2258:A *417:DIODE 8.50801e-06
37 *2258:A *2258:B 0
38 *2258:A *197:68 3.59784e-05
39 *2258:C *197:68 8.49205e-05
40 *2258:C *197:90 0.000183819
41 *2263:C *2263:A 4.66108e-05
42 *2360:RESET_B *197:18 3.25635e-05
43 *2363:CLK *197:18 7.60965e-05
44 *2363:D *197:18 0.000106649
45 *2363:RESET_B *197:18 0.000196162
46 *2386:A *197:90 0.000193801
47 *19:10 *197:66 0.000201321
48 *26:32 *197:24 4.79712e-05
49 *34:12 *197:18 0.000349923
50 *55:14 *197:18 1.68997e-05
51 *55:14 *197:20 0.00302018
52 *55:20 *197:20 0.000220349
53 *97:24 *197:20 0.000150164
54 *97:24 *197:44 0.000162227
55 *144:24 *197:90 0.00162693
56 *144:26 *197:90 4.66108e-05
57 *144:37 *197:20 8.82978e-05
58 *144:37 *197:44 0.000968411
59 *144:43 *197:20 9.54469e-05
60 *146:20 *2257:B1 0.00022786
61 *146:20 *197:24 0.000414641
62 *147:8 *417:DIODE 5.05437e-05
63 *167:28 *2257:B1 0.000189844
64 *167:28 *197:24 0.000898419
65 *176:30 *197:90 0.000198889
66 *177:108 *2263:A 0.000118081
67 *177:108 *197:90 0.000221339
68 *181:194 *2263:A 3.03663e-05
69 *191:74 *197:20 0.000235783
70 *195:120 *237:DIODE 2.21948e-05
71 *195:120 *2181:D_N 9.12671e-06
72 *195:120 *197:46 5.02382e-05
*RES
1 *2363:Q *197:18 22.5075 
2 *197:18 *197:20 46.2375 
3 *197:20 *197:24 12.8 
4 *197:24 *415:DIODE 1.6 
5 *197:24 *2257:B1 4.825 
6 *197:20 *197:44 15.065 
7 *197:44 *197:46 2.175 
8 *197:46 *237:DIODE 2.05 
9 *197:46 *2181:D_N 2.215 
10 *197:44 *197:66 10.735 
11 *197:66 *197:68 1.83 
12 *197:68 *2258:B 1.96 
13 *197:68 *417:DIODE 4.045 
14 *197:66 *197:90 22.905 
15 *197:90 *427:DIODE 1.6 
16 *197:90 *2263:A 3.43 
*END

*D_NET *198 0.0255238
*CONN
*I *234:DIODE I *D sky130_fd_sc_hd__diode_2
*I *2181:A I *D sky130_fd_sc_hd__or4b_1
*I *426:DIODE I *D sky130_fd_sc_hd__diode_2
*I *2262:C I *D sky130_fd_sc_hd__and3_1
*I *422:DIODE I *D sky130_fd_sc_hd__diode_2
*I *2261:A I *D sky130_fd_sc_hd__xnor2_1
*I *2364:Q O *D sky130_fd_sc_hd__dfrtp_2
*CAP
1 *234:DIODE 0.00012412
2 *2181:A 0
3 *426:DIODE 0
4 *2262:C 0
5 *422:DIODE 0
6 *2261:A 0.000116865
7 *2364:Q 0.0022526
8 *198:68 0.00162833
9 *198:44 0.00173143
10 *198:30 0.00174478
11 *198:28 0.0010768
12 *198:14 0.0047034
13 *198:14 *203:50 7.01359e-05
14 *198:14 *219:26 0.000290386
15 *198:28 *2292:B1 6.11812e-05
16 *198:28 *220:59 0.000283907
17 *198:28 *220:73 0.000129735
18 *198:68 *206:46 0.00115223
19 *198:68 *210:90 0
20 *2187:A *198:44 0
21 *2261:B *2261:A 0.000238077
22 *2261:B *198:44 0.000106394
23 *2262:A *198:44 0.000111256
24 *2337:A *198:28 0
25 *2373:D *198:14 0.000380293
26 *19:10 *234:DIODE 0.000104767
27 *19:10 *198:68 0.00150802
28 *56:20 *198:68 1.11338e-05
29 *70:12 *198:28 4.5783e-05
30 *74:10 *198:44 0
31 *97:24 *198:68 0.000132553
32 *115:38 *198:44 0.000371877
33 *122:37 *198:28 0.000116165
34 *126:22 *198:28 5.29938e-05
35 *141:36 *198:68 0.00016582
36 *143:24 *198:14 0.000237437
37 *149:30 *198:68 0.000289459
38 *162:8 *198:28 0
39 *169:44 *198:28 0
40 *169:125 *198:14 7.01359e-05
41 *171:66 *234:DIODE 0.000119251
42 *171:116 *198:14 0.00155881
43 *181:46 *198:28 2.49909e-05
44 *181:46 *198:30 0.000110113
45 *181:46 *198:44 0.000396061
46 *181:78 *198:28 0.000579423
47 *182:32 *198:28 0.000264805
48 *182:32 *198:68 0.00179128
49 *182:46 *198:28 7.58604e-05
50 *182:80 *198:68 0.000195972
51 *187:36 *198:44 0.000604892
52 *192:38 *198:68 2.25075e-05
53 *196:44 *198:44 0.000309099
54 *197:20 *198:28 0
55 *197:20 *198:68 0
56 *197:66 *234:DIODE 0.000112589
57 *197:66 *198:68 5.0096e-05
*RES
1 *2364:Q *198:14 37.21 
2 *198:14 *198:28 22.755 
3 *198:28 *198:30 1.77 
4 *198:30 *198:44 29.185 
5 *198:44 *2261:A 4.12 
6 *198:44 *422:DIODE 1.6 
7 *198:30 *2262:C 1.6 
8 *198:28 *426:DIODE 1.6 
9 *198:14 *198:68 42.435 
10 *198:68 *2181:A 3.6 
11 *198:68 *234:DIODE 6.12 
*END

*D_NET *199 0.0307371
*CONN
*I *2266:A1 I *D sky130_fd_sc_hd__a21oi_2
*I *433:DIODE I *D sky130_fd_sc_hd__diode_2
*I *437:DIODE I *D sky130_fd_sc_hd__diode_2
*I *2267:B I *D sky130_fd_sc_hd__and3_1
*I *431:DIODE I *D sky130_fd_sc_hd__diode_2
*I *2265:A I *D sky130_fd_sc_hd__xor2_1
*I *236:DIODE I *D sky130_fd_sc_hd__diode_2
*I *2181:C I *D sky130_fd_sc_hd__or4b_1
*I *2270:B I *D sky130_fd_sc_hd__and4_1
*I *2271:B I *D sky130_fd_sc_hd__and4_1
*I *444:DIODE I *D sky130_fd_sc_hd__diode_2
*I *448:DIODE I *D sky130_fd_sc_hd__diode_2
*I *2365:Q O *D sky130_fd_sc_hd__dfrtp_4
*CAP
1 *2266:A1 3.72336e-05
2 *433:DIODE 0
3 *437:DIODE 0
4 *2267:B 0
5 *431:DIODE 0
6 *2265:A 0.000166293
7 *236:DIODE 0
8 *2181:C 0.000167342
9 *2270:B 0.00031206
10 *2271:B 0
11 *444:DIODE 0.000219833
12 *448:DIODE 0
13 *2365:Q 0
14 *199:142 0.00246871
15 *199:122 0.00249285
16 *199:116 0.00124931
17 *199:92 0.00242193
18 *199:82 0.00383338
19 *199:76 0.000542263
20 *199:74 0.000659771
21 *199:40 0.000426943
22 *199:14 0.000256792
23 *199:10 0.000256083
24 *199:4 0.000704427
25 *444:DIODE *204:24 7.52968e-05
26 *2181:C *2181:B 5.74791e-05
27 *2181:C *202:8 4.60814e-05
28 *2266:A1 *200:134 0.000159851
29 *2270:B *2270:C 3.09179e-05
30 *2270:B *2271:C 7.03572e-05
31 *2270:B *201:85 1.19928e-05
32 *2270:B *211:68 7.67415e-06
33 *199:10 *2271:A 4.46271e-05
34 *199:10 *204:24 0.000141257
35 *199:10 *204:30 3.11771e-06
36 *199:40 *2271:A 1.07997e-05
37 *199:40 *204:24 6.65879e-05
38 *199:82 *200:6 1.1249e-05
39 *199:82 *200:10 3.44884e-05
40 *199:92 *202:8 0.000142181
41 *199:92 *206:88 2.80419e-05
42 *199:116 *200:14 0.00103179
43 *199:116 *200:48 0.000115026
44 *199:116 *203:56 0.00145537
45 *199:116 *218:58 0.000157401
46 *199:122 *218:58 0.00038006
47 *199:142 *214:14 0
48 *345:DIODE *199:74 3.83194e-05
49 *434:DIODE *2266:A1 4.85381e-05
50 *438:DIODE *199:122 0.000230498
51 *2243:A *199:142 0.000344448
52 *2265:B *2265:A 0.000346165
53 *2272:C *2270:B 1.14169e-05
54 *2366:CLK *199:82 1.19928e-05
55 *2366:CLK *199:92 4.1745e-05
56 *2368:CLK *199:92 5.38957e-05
57 *2368:D *199:92 1.77665e-05
58 *2368:RESET_B *199:92 9.13537e-05
59 *2373:RESET_B *199:116 0.000979956
60 *2374:RESET_B *199:142 0
61 *16:10 *199:142 0.000286967
62 *21:22 *2265:A 1.91597e-05
63 *21:24 *199:142 0.000226848
64 *28:28 *199:74 0.000117708
65 *31:24 *199:116 0.000525832
66 *33:26 *199:142 7.02478e-06
67 *34:8 *199:116 0.000253837
68 *42:26 *199:142 0.00014535
69 *106:68 *199:116 0.000897245
70 *106:88 *444:DIODE 0.000174736
71 *110:10 *199:74 0.000461784
72 *110:10 *199:76 6.68849e-05
73 *110:10 *199:82 0.000242786
74 *119:115 *2270:B 9.80943e-06
75 *119:115 *199:40 0.000159054
76 *128:16 *444:DIODE 0.000122435
77 *128:16 *199:14 4.66108e-05
78 *129:41 *2270:B 7.01303e-05
79 *141:58 *199:92 2.54487e-05
80 *141:92 *199:74 0.000416027
81 *151:22 *444:DIODE 8.40269e-05
82 *151:28 *2270:B 3.64998e-06
83 *151:39 *199:10 2.36783e-05
84 *151:39 *199:40 1.07563e-05
85 *151:96 *199:122 3.00355e-05
86 *151:96 *199:142 0.000283752
87 *151:121 *2266:A1 4.98818e-05
88 *153:22 *199:142 0.000228857
89 *154:8 *2270:B 2.49909e-05
90 *154:10 *2270:B 4.05358e-05
91 *156:91 *199:142 0
92 *171:92 *199:142 0.000225175
93 *177:52 *199:92 9.3782e-05
94 *177:68 *199:92 5.68129e-05
95 *177:157 *199:10 2.68526e-05
96 *177:157 *199:74 5.71907e-05
97 *181:78 *199:142 0.00128931
98 *186:117 *199:74 0.000186961
99 *186:117 *199:76 2.96553e-05
100 *186:117 *199:82 9.07525e-05
101 *195:120 *2181:C 0.000268432
102 *195:120 *199:92 6.72833e-06
103 *196:16 *199:142 0.000595161
104 *197:44 *2181:C 0.000159173
105 *197:46 *2181:C 8.23457e-05
*RES
1 *2365:Q *199:4 1.6 
2 *199:4 *199:10 4.34 
3 *199:10 *199:14 2.45 
4 *199:14 *448:DIODE 1.6 
5 *199:14 *444:DIODE 9.68 
6 *199:10 *199:40 4.355 
7 *199:40 *2271:B 1.6 
8 *199:40 *2270:B 10.505 
9 *199:4 *199:74 13.55 
10 *199:74 *199:76 0.87 
11 *199:76 *199:82 9.5 
12 *199:82 *199:92 30.61 
13 *199:92 *2181:C 6.19 
14 *199:92 *236:DIODE 1.6 
15 *199:82 *199:116 40.15 
16 *199:116 *199:122 4.71 
17 *199:122 *199:142 48.095 
18 *199:142 *2265:A 5.155 
19 *199:142 *431:DIODE 1.6 
20 *199:122 *2267:B 1.6 
21 *199:116 *437:DIODE 1.6 
22 *199:76 *433:DIODE 3.6 
23 *199:74 *2266:A1 5.085 
*END

*D_NET *200 0.0224931
*CONN
*I *2266:B1 I *D sky130_fd_sc_hd__a21oi_2
*I *435:DIODE I *D sky130_fd_sc_hd__diode_2
*I *2270:A I *D sky130_fd_sc_hd__and4_1
*I *443:DIODE I *D sky130_fd_sc_hd__diode_2
*I *447:DIODE I *D sky130_fd_sc_hd__diode_2
*I *2271:A I *D sky130_fd_sc_hd__and4_1
*I *235:DIODE I *D sky130_fd_sc_hd__diode_2
*I *2181:B I *D sky130_fd_sc_hd__or4b_1
*I *436:DIODE I *D sky130_fd_sc_hd__diode_2
*I *2267:A I *D sky130_fd_sc_hd__and3_1
*I *2366:Q O *D sky130_fd_sc_hd__dfrtp_2
*CAP
1 *2266:B1 0
2 *435:DIODE 0.000185212
3 *2270:A 0.000180699
4 *443:DIODE 8.10783e-05
5 *447:DIODE 3.38751e-05
6 *2271:A 0.000119467
7 *235:DIODE 0
8 *2181:B 0.000253959
9 *436:DIODE 6.54647e-05
10 *2267:A 0.000221471
11 *2366:Q 0.000343203
12 *200:134 0.00045445
13 *200:106 0.000408732
14 *200:95 0.000240972
15 *200:78 0.000556748
16 *200:72 0.000777226
17 *200:48 0.00227794
18 *200:14 0.00132067
19 *200:10 0.00341279
20 *200:6 0.000829124
21 *2267:A *218:58 4.21579e-05
22 *2270:A *211:68 1.46828e-05
23 *200:14 *466:DIODE 0.000151346
24 *200:14 *203:50 0.000197432
25 *200:14 *204:30 0.000765682
26 *200:14 *211:38 2.12738e-05
27 *200:48 *2202:A 0.000155608
28 *200:48 *202:96 9.23027e-06
29 *200:48 *204:30 0.000168842
30 *434:DIODE *435:DIODE 0.000119246
31 *434:DIODE *200:134 4.99782e-05
32 *2181:C *2181:B 5.74791e-05
33 *2202:B *200:48 2.68526e-05
34 *2217:A *2181:B 0.000114399
35 *2217:A *200:48 8.20962e-05
36 *2266:A1 *200:134 0.000159851
37 *2266:A2 *435:DIODE 0
38 *2287:B *200:78 0.000141606
39 *2331:A *200:48 4.66108e-05
40 *2354:D *200:14 0.000474728
41 *2366:CLK *200:10 4.41506e-05
42 *2366:RESET_B *436:DIODE 0.000110673
43 *2366:RESET_B *2267:A 0.00034245
44 *2373:RESET_B *200:14 0.00115183
45 *37:12 *200:48 8.34281e-06
46 *41:24 *200:72 0.000439833
47 *48:16 *200:14 0.000346117
48 *65:16 *2270:A 0
49 *65:16 *200:72 0.000244716
50 *65:16 *200:106 0
51 *66:32 *200:72 0.000112211
52 *106:62 *200:48 0.00122909
53 *106:68 *200:48 3.29269e-05
54 *106:88 *2270:A 1.80732e-05
55 *106:88 *200:78 6.44585e-05
56 *106:88 *200:95 4.50017e-05
57 *106:88 *200:106 8.61426e-05
58 *128:16 *447:DIODE 4.82863e-05
59 *128:16 *200:14 0
60 *141:92 *200:78 0.000266605
61 *144:22 *2271:A 0.000343773
62 *151:22 *443:DIODE 0.0001249
63 *151:22 *2270:A 0.00019532
64 *151:28 *2270:A 7.64349e-05
65 *151:39 *2271:A 0.000111192
66 *151:121 *200:78 0.000101358
67 *151:121 *200:134 3.23284e-05
68 *171:66 *2181:B 0.000114399
69 *171:66 *200:48 0.000116933
70 *177:157 *2271:A 0.000344927
71 *179:30 *200:78 7.89767e-05
72 *179:54 *200:78 0.000124532
73 *184:144 *2270:A 0.000122331
74 *195:132 *2270:A 7.9642e-06
75 *197:44 *2181:B 0.00014891
76 *197:46 *2181:B 4.77757e-05
77 *199:10 *2271:A 4.46271e-05
78 *199:40 *2271:A 1.07997e-05
79 *199:82 *200:6 1.1249e-05
80 *199:82 *200:10 3.44884e-05
81 *199:116 *200:14 0.00103179
82 *199:116 *200:48 0.000115026
*RES
1 *2366:Q *200:6 5.155 
2 *200:6 *200:10 5.9 
3 *200:10 *200:14 33.725 
4 *200:14 *2267:A 5.5 
5 *200:14 *436:DIODE 2.74 
6 *200:10 *200:48 35.23 
7 *200:48 *2181:B 7.845 
8 *200:48 *235:DIODE 3.6 
9 *200:6 *200:72 9.205 
10 *200:72 *200:78 10.745 
11 *200:78 *2271:A 12.19 
12 *200:78 *200:95 1.125 
13 *200:95 *447:DIODE 4.05 
14 *200:95 *200:106 2.145 
15 *200:106 *443:DIODE 4.74 
16 *200:106 *2270:A 7.545 
17 *200:72 *200:134 4.26 
18 *200:134 *435:DIODE 4.48 
19 *200:134 *2266:B1 1.6 
*END

*D_NET *201 0.0244887
*CONN
*I *2269:A I *D sky130_fd_sc_hd__xor2_1
*I *2270:C I *D sky130_fd_sc_hd__and4_1
*I *2271:D I *D sky130_fd_sc_hd__and4_1
*I *450:DIODE I *D sky130_fd_sc_hd__diode_2
*I *445:DIODE I *D sky130_fd_sc_hd__diode_2
*I *441:DIODE I *D sky130_fd_sc_hd__diode_2
*I *2184:B I *D sky130_fd_sc_hd__or3_2
*I *243:DIODE I *D sky130_fd_sc_hd__diode_2
*I *2367:Q O *D sky130_fd_sc_hd__dfrtp_2
*CAP
1 *2269:A 1.26894e-05
2 *2270:C 3.52582e-05
3 *2271:D 6.88958e-05
4 *450:DIODE 0
5 *445:DIODE 0
6 *441:DIODE 2.56839e-05
7 *2184:B 0
8 *243:DIODE 0
9 *2367:Q 0.00104849
10 *201:85 0.000132988
11 *201:78 9.41221e-05
12 *201:71 0.000997226
13 *201:67 0.00247535
14 *201:54 0.00168784
15 *201:48 0.000451809
16 *201:31 0.000566858
17 *201:22 0.00129497
18 *2270:C *211:68 8.65961e-05
19 *2271:D *204:24 1.79766e-06
20 *201:31 *242:DIODE 8.1871e-05
21 *201:31 *202:44 9.11179e-05
22 *201:48 *202:44 4.68462e-05
23 *201:67 *209:142 6.10352e-05
24 *201:71 *211:68 0.00177352
25 *201:71 *216:12 0.000253667
26 *201:78 *211:68 0.000199584
27 *201:85 *211:68 0.000121019
28 *360:DIODE *201:48 0.000192125
29 *380:DIODE *201:22 8.03557e-05
30 *380:DIODE *201:31 4.66108e-05
31 *492:DIODE *201:71 1.56428e-05
32 *2218:B *201:67 8.40213e-05
33 *2234:A *201:48 2.05056e-05
34 *2234:B *201:54 0
35 *2247:A *201:67 0.000182618
36 *2251:C *201:22 0.000746783
37 *2270:B *2270:C 3.09179e-05
38 *2270:B *201:85 1.19928e-05
39 *2296:A1 *201:22 0.000232403
40 *2296:B1 *201:22 0.000115614
41 *2345:D *201:67 0.00205414
42 *2357:D *201:67 0.000200859
43 *2359:CLK *201:48 0.000118081
44 *2359:D *2269:A 4.66108e-05
45 *2359:D *201:48 6.39469e-05
46 *2359:RESET_B *441:DIODE 0.000160826
47 *2359:RESET_B *201:67 0.000619761
48 *17:14 *201:22 0.000598506
49 *21:36 *201:71 7.17852e-05
50 *74:10 *201:48 9.17274e-05
51 *82:16 *201:67 0.000290396
52 *88:20 *201:22 0.000668947
53 *96:46 *201:67 0.000730516
54 *101:26 *201:67 0.000272471
55 *105:18 *201:48 9.044e-05
56 *116:50 *2269:A 1.43396e-05
57 *116:50 *201:48 5.27288e-05
58 *129:41 *2271:D 0.000130171
59 *131:18 *201:48 0.000114834
60 *131:44 *201:48 8.40269e-05
61 *138:28 *201:67 0.000327659
62 *140:14 *201:22 0.000670793
63 *145:12 *201:67 0
64 *151:28 *2270:C 2.97406e-05
65 *151:39 *2271:D 3.72725e-05
66 *152:30 *201:67 0.00035035
67 *153:61 *201:48 1.20052e-05
68 *154:8 *201:78 4.77757e-05
69 *154:8 *201:85 7.38676e-05
70 *167:44 *201:22 0.000233573
71 *167:48 *201:22 3.18137e-05
72 *169:176 *201:22 0.000261292
73 *172:62 *441:DIODE 0.000160826
74 *172:62 *201:67 0.000638665
75 *184:20 *201:71 0.00159931
76 *186:36 *201:54 0.00016984
77 *188:22 *201:54 0
*RES
1 *2367:Q *201:22 39.27 
2 *201:22 *243:DIODE 1.6 
3 *201:22 *201:31 3.915 
4 *201:31 *2184:B 1.6 
5 *201:31 *201:48 11.125 
6 *201:48 *201:54 6.145 
7 *201:54 *441:DIODE 3.085 
8 *201:54 *201:67 48.245 
9 *201:67 *201:71 27.98 
10 *201:71 *445:DIODE 1.6 
11 *201:71 *201:78 1.83 
12 *201:78 *450:DIODE 1.6 
13 *201:78 *201:85 1.14 
14 *201:85 *2271:D 7.235 
15 *201:85 *2270:C 2.755 
16 *201:48 *2269:A 2.05 
*END

*D_NET *202 0.0275473
*CONN
*I *2271:C I *D sky130_fd_sc_hd__and4_1
*I *449:DIODE I *D sky130_fd_sc_hd__diode_2
*I *452:DIODE I *D sky130_fd_sc_hd__diode_2
*I *2273:A1 I *D sky130_fd_sc_hd__o21ba_1
*I *2184:A I *D sky130_fd_sc_hd__or3_2
*I *242:DIODE I *D sky130_fd_sc_hd__diode_2
*I *2368:Q O *D sky130_fd_sc_hd__dfrtp_1
*CAP
1 *2271:C 7.77571e-05
2 *449:DIODE 0
3 *452:DIODE 0
4 *2273:A1 0.000273716
5 *2184:A 0
6 *242:DIODE 6.13564e-05
7 *2368:Q 0.000266831
8 *202:96 0.00184298
9 *202:62 0.00130477
10 *202:44 0.00181619
11 *202:24 0.0035373
12 *202:8 0.00278346
13 *2273:A1 *205:64 1.21329e-05
14 *202:24 *300:DIODE 8.23457e-05
15 *202:62 *313:DIODE 0.000122331
16 *202:62 *205:64 0.000266437
17 *202:62 *218:52 5.78448e-05
18 *472:DIODE *202:96 0.000415144
19 *2181:C *202:8 4.60814e-05
20 *2217:A *202:96 0.000219864
21 *2234:B *202:44 8.35106e-05
22 *2270:B *2271:C 7.03572e-05
23 *2272:C *2271:C 8.52883e-05
24 *2272:C *202:96 0.000132684
25 *2273:A2 *2273:A1 5.12651e-05
26 *2330:A *202:44 0.000165135
27 *2352:RESET_B *202:96 0.000154519
28 *17:28 *2273:A1 7.03219e-05
29 *21:24 *202:24 0.000744832
30 *39:28 *202:62 0.000193286
31 *60:10 *202:24 0.000108692
32 *60:10 *202:96 0.000958617
33 *60:14 *202:24 0.00117265
34 *80:16 *202:62 0.000561444
35 *94:20 *202:24 0.000744832
36 *96:14 *242:DIODE 8.40269e-05
37 *96:14 *202:44 0.00013837
38 *113:22 *202:44 0.00026102
39 *113:22 *202:62 0.000636556
40 *117:24 *202:24 0.00111545
41 *119:38 *202:24 0.000190717
42 *119:115 *2271:C 0.000192357
43 *119:115 *202:96 0.000650821
44 *123:20 *202:44 9.54399e-05
45 *130:52 *202:44 0.0016561
46 *132:28 *2273:A1 9.24881e-05
47 *132:28 *202:62 0.000774269
48 *134:105 *202:62 0.000201714
49 *138:28 *202:24 0.000127571
50 *144:22 *202:96 0.000158072
51 *167:28 *202:44 9.37731e-05
52 *171:66 *202:24 0.000162214
53 *171:66 *202:96 0.000167892
54 *171:86 *202:24 0.000146377
55 *177:136 *202:96 7.06865e-05
56 *182:136 *202:96 0.0014638
57 *185:78 *202:96 7.26475e-06
58 *189:28 *2273:A1 0.000205123
59 *199:92 *202:8 0.000142181
60 *200:48 *202:96 9.23027e-06
61 *201:31 *242:DIODE 8.1871e-05
62 *201:31 *202:44 9.11179e-05
63 *201:48 *202:44 4.68462e-05
*RES
1 *2368:Q *202:8 6.81 
2 *202:8 *202:24 32.82 
3 *202:24 *202:44 29.74 
4 *202:44 *242:DIODE 3.085 
5 *202:44 *2184:A 1.6 
6 *202:24 *202:62 24.845 
7 *202:62 *2273:A1 8.64 
8 *202:62 *452:DIODE 3.6 
9 *202:8 *202:96 40.305 
10 *202:96 *449:DIODE 1.6 
11 *202:96 *2271:C 4.15 
*END

*D_NET *203 0.0431243
*CONN
*I *467:DIODE I *D sky130_fd_sc_hd__diode_2
*I *2280:B I *D sky130_fd_sc_hd__and4_1
*I *460:DIODE I *D sky130_fd_sc_hd__diode_2
*I *2277:B I *D sky130_fd_sc_hd__nand3_2
*I *245:DIODE I *D sky130_fd_sc_hd__diode_2
*I *2185:A I *D sky130_fd_sc_hd__or3_1
*I *456:DIODE I *D sky130_fd_sc_hd__diode_2
*I *2275:A I *D sky130_fd_sc_hd__nor2_1
*I *319:DIODE I *D sky130_fd_sc_hd__diode_2
*I *2218:A I *D sky130_fd_sc_hd__or4b_1
*I *454:DIODE I *D sky130_fd_sc_hd__diode_2
*I *2274:A I *D sky130_fd_sc_hd__and2_1
*I *2369:Q O *D sky130_fd_sc_hd__dfrtp_4
*CAP
1 *467:DIODE 0
2 *2280:B 0.000108819
3 *460:DIODE 0
4 *2277:B 4.42991e-05
5 *245:DIODE 0
6 *2185:A 6.83269e-05
7 *456:DIODE 0.000101684
8 *2275:A 0
9 *319:DIODE 0
10 *2218:A 0.000179589
11 *454:DIODE 0
12 *2274:A 9.45069e-05
13 *2369:Q 0.00119989
14 *203:120 0.00190587
15 *203:103 0.00196966
16 *203:96 0.000641912
17 *203:78 0.00100708
18 *203:74 0.0020092
19 *203:68 0.000923449
20 *203:66 0.000746896
21 *203:58 0.000826998
22 *203:56 0.000795455
23 *203:50 0.00212756
24 *203:26 0.00205198
25 *203:12 0.00476967
26 *2218:A *321:DIODE 0.00010978
27 *2218:A *209:22 8.65905e-05
28 *2218:A *209:24 4.99619e-05
29 *2218:A *211:78 0.000201503
30 *2277:B *204:63 5.18008e-05
31 *203:26 *279:DIODE 0.000135392
32 *203:26 *2284:A 0.000159722
33 *203:26 *208:66 0.00169269
34 *203:26 *220:59 0.000197858
35 *203:56 *2392:A 6.0011e-05
36 *203:58 *2392:A 0.000145561
37 *203:66 *2392:A 0.000147788
38 *203:68 *204:63 7.52724e-05
39 *203:74 *2277:A 2.49909e-05
40 *203:74 *204:63 5.24934e-05
41 *203:74 *208:36 7.15125e-05
42 *203:78 *206:46 0.000851179
43 *203:78 *208:6 0.000112349
44 *203:78 *208:14 8.40213e-05
45 *203:96 *208:36 7.21296e-06
46 *203:120 *205:94 0
47 *383:DIODE *203:12 0.000115345
48 *461:DIODE *203:68 4.41506e-05
49 *522:DIODE *203:78 0.000195068
50 *2182:C *203:74 0.000662317
51 *2182:C *203:96 0.00149975
52 *2182:C *203:120 0.000865834
53 *2185:B *2185:A 0.000164874
54 *2185:B *203:120 0.000150653
55 *2185:C *2185:A 4.99619e-05
56 *2243:A *203:12 7.38695e-05
57 *2274:B *2274:A 0.000100348
58 *2274:B *203:26 8.84295e-05
59 *2275:B *456:DIODE 4.82863e-05
60 *2275:B *203:103 3.96737e-05
61 *2278:A2 *203:26 0.00118903
62 *2280:D *2280:B 7.01359e-05
63 *2293:A *203:120 4.22064e-05
64 *2299:A1 *203:78 0.000194694
65 *2299:A2 *203:74 0.000253074
66 *2362:D *203:50 4.52061e-05
67 *2373:RESET_B *203:50 0.000311563
68 *16:10 *203:66 0.000133931
69 *30:18 *203:50 0.000479574
70 *31:24 *203:56 0.000273175
71 *33:26 *203:50 1.1392e-05
72 *34:8 *203:50 0
73 *34:8 *203:56 0.00145262
74 *55:20 *203:78 0.000447493
75 *95:46 *203:120 0.000566108
76 *119:24 *203:96 0
77 *119:87 *203:96 0.000367294
78 *129:22 *203:120 9.37345e-05
79 *130:46 *203:120 0.000240209
80 *132:28 *2280:B 4.66108e-05
81 *134:175 *203:120 0
82 *151:69 *2280:B 0.00014025
83 *151:69 *203:50 0
84 *154:10 *2280:B 4.19797e-05
85 *156:14 *456:DIODE 8.23457e-05
86 *156:49 *203:68 4.41506e-05
87 *156:91 *203:26 0.000271125
88 *156:101 *203:26 0.00164589
89 *156:140 *203:66 6.97943e-06
90 *158:24 *203:96 1.92979e-05
91 *162:20 *203:96 0.000199734
92 *166:90 *203:120 0.000303657
93 *169:125 *203:50 7.78482e-05
94 *171:66 *203:78 0.00018955
95 *171:135 *203:50 0
96 *175:86 *203:50 0
97 *175:90 *203:50 0
98 *179:82 *203:12 0.000383685
99 *179:82 *203:26 0.000296133
100 *179:84 *203:26 0.000150055
101 *179:104 *203:26 0.000486629
102 *181:144 *2218:A 0.000206083
103 *181:144 *203:78 0.000200824
104 *182:18 *203:74 3.70053e-05
105 *182:136 *456:DIODE 0.000123279
106 *182:136 *203:103 4.41506e-05
107 *183:150 *203:66 0.000243593
108 *185:78 *203:120 0
109 *198:14 *203:50 7.01359e-05
110 *199:116 *203:56 0.00145537
111 *200:14 *203:50 0.000197432
*RES
1 *2369:Q *203:12 20.63 
2 *203:12 *203:26 49.275 
3 *203:26 *2274:A 3.445 
4 *203:26 *454:DIODE 1.6 
5 *203:12 *203:50 33.69 
6 *203:50 *203:56 20.675 
7 *203:56 *203:58 3.555 
8 *203:58 *203:66 11.155 
9 *203:66 *203:68 3.555 
10 *203:68 *203:74 13.22 
11 *203:74 *203:78 20.39 
12 *203:78 *2218:A 6.55 
13 *203:78 *319:DIODE 1.6 
14 *203:74 *203:96 19.955 
15 *203:96 *2275:A 1.6 
16 *203:96 *203:103 0.795 
17 *203:103 *456:DIODE 3.79 
18 *203:103 *203:120 40.45 
19 *203:120 *2185:A 3.43 
20 *203:120 *245:DIODE 1.6 
21 *203:68 *2277:B 2.665 
22 *203:66 *460:DIODE 1.6 
23 *203:58 *2280:B 8.195 
24 *203:56 *467:DIODE 1.6 
*END

*D_NET *204 0.0305878
*CONN
*I *2280:A I *D sky130_fd_sc_hd__and4_1
*I *459:DIODE I *D sky130_fd_sc_hd__diode_2
*I *244:DIODE I *D sky130_fd_sc_hd__diode_2
*I *2184:C I *D sky130_fd_sc_hd__or3_2
*I *462:DIODE I *D sky130_fd_sc_hd__diode_2
*I *2278:A1 I *D sky130_fd_sc_hd__o21a_1
*I *2277:A I *D sky130_fd_sc_hd__nand3_2
*I *466:DIODE I *D sky130_fd_sc_hd__diode_2
*I *2370:Q O *D sky130_fd_sc_hd__dfrtp_4
*CAP
1 *2280:A 0
2 *459:DIODE 0
3 *244:DIODE 0
4 *2184:C 8.08154e-05
5 *462:DIODE 0
6 *2278:A1 0.000283706
7 *2277:A 1.93533e-05
8 *466:DIODE 0.0002119
9 *2370:Q 0.00266718
10 *204:112 0.00191703
11 *204:82 0.00113212
12 *204:76 0.00309699
13 *204:63 0.000656385
14 *204:57 0.00071171
15 *204:45 0.000589821
16 *204:30 0.00121533
17 *204:24 0.00356783
18 *466:DIODE *2392:A 9.2073e-05
19 *204:24 *209:115 7.23602e-05
20 *204:57 *2280:C 6.50242e-05
21 *204:76 *221:14 0.000132821
22 *204:82 *208:36 0
23 *204:82 *208:38 0
24 *444:DIODE *204:24 7.52968e-05
25 *461:DIODE *204:63 7.14699e-05
26 *463:DIODE *2278:A1 0.000188069
27 *2238:B *466:DIODE 0
28 *2238:B *204:45 0.000196669
29 *2238:C *204:45 1.33285e-05
30 *2238:C *204:57 2.49909e-05
31 *2239:A *466:DIODE 9.5799e-06
32 *2270:D *204:24 4.06414e-05
33 *2271:D *204:24 1.79766e-06
34 *2277:B *204:63 5.18008e-05
35 *2278:A2 *2278:A1 4.99619e-05
36 *2281:B *204:57 0.00015896
37 *2352:D *204:30 0.000468354
38 *2370:CLK *204:24 8.8266e-05
39 *2370:D *204:24 0.000207001
40 *18:10 *2184:C 0.000138551
41 *48:8 *2184:C 0.000154981
42 *48:8 *204:112 0.000119242
43 *56:16 *204:24 2.27549e-06
44 *74:10 *2184:C 0.000136884
45 *96:14 *204:112 0.00138017
46 *104:34 *204:24 0.000739908
47 *106:68 *204:30 6.59706e-06
48 *106:88 *204:24 4.06515e-06
49 *113:32 *2184:C 0.000156656
50 *113:32 *204:112 0.000109506
51 *115:70 *204:57 0.000222182
52 *120:18 *204:112 9.14049e-05
53 *126:20 *2278:A1 4.66826e-05
54 *126:20 *204:82 1.5186e-05
55 *127:26 *204:24 4.37173e-06
56 *127:26 *204:30 0.000696197
57 *128:16 *466:DIODE 0
58 *129:41 *204:24 1.04255e-06
59 *130:46 *204:76 0.00015356
60 *130:52 *204:112 0.00106249
61 *132:28 *204:57 2.14655e-05
62 *134:105 *204:112 4.41506e-05
63 *151:22 *204:24 3.25575e-05
64 *151:39 *204:24 0
65 *151:69 *204:30 0
66 *151:69 *204:45 4.77757e-05
67 *151:69 *204:57 8.23457e-05
68 *153:22 *204:82 7.80764e-05
69 *153:22 *204:112 0.000232403
70 *154:10 *204:57 0
71 *156:49 *204:63 8.35118e-05
72 *159:24 *2278:A1 0.000122325
73 *161:16 *204:57 0.000527458
74 *166:66 *204:76 0.00038298
75 *166:66 *204:82 0.000537563
76 *169:160 *204:57 2.69443e-06
77 *175:64 *204:82 0.000591569
78 *180:58 *204:76 0.000292079
79 *182:14 *204:57 4.21906e-05
80 *182:14 *204:63 0.000339024
81 *182:18 *2277:A 2.49909e-05
82 *182:18 *204:63 0.000259566
83 *184:144 *204:24 4.46808e-07
84 *185:84 *204:112 9.30787e-05
85 *190:44 *204:82 0
86 *191:98 *204:82 0.0015899
87 *194:20 *204:76 3.12319e-05
88 *194:20 *204:82 0.000101948
89 *196:93 *204:76 0.000176325
90 *199:10 *204:24 0.000141257
91 *199:10 *204:30 3.11771e-06
92 *199:40 *204:24 6.65879e-05
93 *200:14 *466:DIODE 0.000151346
94 *200:14 *204:30 0.000765682
95 *200:48 *204:30 0.000168842
96 *203:68 *204:63 7.52724e-05
97 *203:74 *2277:A 2.49909e-05
98 *203:74 *204:63 5.24934e-05
*RES
1 *2370:Q *204:24 48.3825 
2 *204:24 *204:30 20.4225 
3 *204:30 *466:DIODE 6.975 
4 *204:30 *204:45 4.175 
5 *204:45 *204:57 15.19 
6 *204:57 *204:63 6.435 
7 *204:63 *2277:A 2.05 
8 *204:63 *204:76 13.01 
9 *204:76 *204:82 24.92 
10 *204:82 *2278:A1 7.06 
11 *204:82 *462:DIODE 1.6 
12 *204:76 *204:112 40.14 
13 *204:112 *2184:C 8.72 
14 *204:112 *244:DIODE 1.6 
15 *204:57 *459:DIODE 1.6 
16 *204:45 *2280:A 1.6 
*END

*D_NET *205 0.0265504
*CONN
*I *2196:A I *D sky130_fd_sc_hd__xnor2_1
*I *270:DIODE I *D sky130_fd_sc_hd__diode_2
*I *240:DIODE I *D sky130_fd_sc_hd__diode_2
*I *2183:C I *D sky130_fd_sc_hd__or4_2
*I *278:DIODE I *D sky130_fd_sc_hd__diode_2
*I *2199:A3 I *D sky130_fd_sc_hd__a31o_1
*I *2197:C I *D sky130_fd_sc_hd__and4_1
*I *274:DIODE I *D sky130_fd_sc_hd__diode_2
*I *2343:Q O *D sky130_fd_sc_hd__dfrtp_4
*CAP
1 *2196:A 0.000181193
2 *270:DIODE 0
3 *240:DIODE 0
4 *2183:C 0.000250642
5 *278:DIODE 0
6 *2199:A3 0
7 *2197:C 0.000434142
8 *274:DIODE 0
9 *2343:Q 6.02722e-05
10 *205:94 0.00114242
11 *205:70 0.000389447
12 *205:68 0.00182337
13 *205:64 0.00222141
14 *205:28 0.000851024
15 *205:22 0.00072852
16 *205:14 0.00089424
17 *205:8 0.00214095
18 *2183:C *241:DIODE 0.000232434
19 *2197:C *2197:D 0.000423626
20 *2197:C *220:59 0.000109572
21 *205:8 *220:38 0.000120655
22 *205:14 *2199:B1 0
23 *205:28 *220:59 0.000131022
24 *205:64 *215:16 1.39621e-05
25 *205:64 *218:52 5.95051e-05
26 *205:70 *241:DIODE 0.000119873
27 *276:DIODE *205:22 0.00029494
28 *276:DIODE *205:28 4.66108e-05
29 *337:DIODE *205:94 8.5242e-05
30 *2196:B *205:94 0
31 *2243:A *205:14 0.000370786
32 *2273:A1 *205:64 1.21329e-05
33 *2350:D *205:28 0.000648059
34 *2369:D *205:28 0.000153502
35 *2374:D *205:64 0.000257945
36 *2383:A *205:68 1.83182e-05
37 *17:28 *205:64 0.000145354
38 *21:22 *2197:C 4.12864e-05
39 *34:12 *205:14 4.60584e-05
40 *34:12 *205:22 0.000115146
41 *103:34 *205:94 0
42 *119:163 *205:94 0.00017765
43 *119:174 *205:94 4.04632e-05
44 *119:185 *205:94 0.00037815
45 *130:46 *205:64 0.000151756
46 *130:46 *205:68 0.00037274
47 *130:52 *205:64 0.000547854
48 *132:28 *205:64 2.69099e-05
49 *134:105 *205:64 0.00110205
50 *134:159 *205:64 0.000154168
51 *144:22 *205:68 0.000397734
52 *156:14 *205:68 0.000916817
53 *156:38 *205:64 0.000814212
54 *156:38 *205:68 1.18413e-05
55 *156:42 *205:64 0.000398224
56 *156:91 *205:14 0.000185597
57 *156:91 *205:64 0.000350688
58 *170:129 *2183:C 2.747e-05
59 *170:129 *205:70 2.747e-05
60 *170:129 *205:94 4.31127e-05
61 *171:92 *205:28 0.000569498
62 *179:104 *205:14 0
63 *179:104 *205:28 0.000147459
64 *180:58 *205:64 0.000483229
65 *180:67 *205:64 0.000159957
66 *180:82 *205:64 0.000198753
67 *180:107 *205:68 0
68 *185:14 *205:68 8.39722e-05
69 *185:78 *205:68 0.000305733
70 *185:78 *205:94 0.000554957
71 *190:118 *205:64 8.86692e-05
72 *194:20 *205:64 1.3858e-05
73 *194:41 *205:64 0.000222824
74 *194:47 *205:14 0.000286248
75 *194:47 *205:64 0.00105446
76 *194:49 *205:14 2.22429e-05
77 *194:55 *205:14 3.54721e-05
78 *194:73 *205:22 4.87939e-05
79 *194:73 *205:28 0.00117089
80 *194:95 *205:28 0
81 *197:20 *2197:C 4.74965e-05
82 *197:20 *205:28 0.000100858
83 *202:62 *205:64 0.000266437
84 *203:120 *205:94 0
*RES
1 *2343:Q *205:8 4.74 
2 *205:8 *205:14 14.375 
3 *205:14 *205:22 8.935 
4 *205:22 *205:28 19.235 
5 *205:28 *274:DIODE 3.6 
6 *205:28 *2197:C 10.26 
7 *205:22 *2199:A3 1.6 
8 *205:14 *278:DIODE 1.6 
9 *205:8 *205:64 46.7175 
10 *205:64 *205:68 21.6125 
11 *205:68 *205:70 1.83 
12 *205:70 *2183:C 5.08 
13 *205:70 *240:DIODE 1.6 
14 *205:68 *205:94 22.705 
15 *205:94 *270:DIODE 1.6 
16 *205:94 *2196:A 4.39 
*END

*D_NET *206 0.0232716
*CONN
*I *2183:B I *D sky130_fd_sc_hd__or4_2
*I *239:DIODE I *D sky130_fd_sc_hd__diode_2
*I *468:DIODE I *D sky130_fd_sc_hd__diode_2
*I *2280:C I *D sky130_fd_sc_hd__and4_1
*I *464:DIODE I *D sky130_fd_sc_hd__diode_2
*I *2279:A I *D sky130_fd_sc_hd__xnor2_1
*I *2371:Q O *D sky130_fd_sc_hd__dfrtp_2
*CAP
1 *2183:B 0.000199453
2 *239:DIODE 0
3 *468:DIODE 0
4 *2280:C 8.96284e-05
5 *464:DIODE 0
6 *2279:A 0.000211966
7 *2371:Q 0
8 *206:88 0.00165914
9 *206:56 0.00132207
10 *206:46 0.00461671
11 *206:14 0.00131024
12 *206:4 0.00302286
13 *2183:B *2183:A 7.5589e-05
14 *2280:C *216:12 5.19629e-05
15 *206:14 *213:58 7.01359e-05
16 *206:46 *210:90 0.000887819
17 *206:56 *216:12 8.35683e-05
18 *262:DIODE *206:46 0.000192509
19 *2189:A *206:88 0
20 *2256:B *2279:A 6.72833e-06
21 *2279:B *2279:A 0.000127108
22 *2279:B *206:14 3.97205e-05
23 *2281:B *2280:C 0.000230429
24 *2348:RESET_B *206:88 0.000101807
25 *2371:D *2279:A 0.000121659
26 *2371:D *206:14 3.57349e-05
27 *2371:RESET_B *206:14 0.000113537
28 *2371:RESET_B *206:46 8.41307e-05
29 *55:20 *206:56 0.000137996
30 *95:18 *2183:B 8.33066e-06
31 *95:18 *206:88 0.0018244
32 *95:24 *206:88 2.17348e-05
33 *132:28 *2280:C 0.00034403
34 *141:8 *206:56 0
35 *141:36 *206:46 0.000163985
36 *141:58 *206:56 0
37 *141:58 *206:88 0
38 *141:114 *2183:B 3.61276e-05
39 *141:114 *206:88 0
40 *149:30 *206:46 0.000158482
41 *159:40 *206:14 0.000340464
42 *161:16 *2280:C 5.06809e-05
43 *161:16 *206:56 9.30717e-05
44 *166:66 *206:46 0.000267554
45 *170:129 *2183:B 7.82612e-05
46 *170:129 *206:88 8.83683e-05
47 *174:18 *206:14 0.000151117
48 *174:18 *206:46 2.28887e-05
49 *174:156 *206:46 0.000155234
50 *181:144 *206:56 0.00124941
51 *184:54 *206:14 0.000230906
52 *184:114 *2183:B 5.68531e-05
53 *186:36 *206:14 0.000145526
54 *189:28 *206:46 0.000377168
55 *192:38 *206:46 0.000258563
56 *192:61 *206:56 0.000113409
57 *192:61 *206:88 6.21553e-05
58 *197:20 *206:46 8.39214e-05
59 *198:68 *206:46 0.00115223
60 *199:92 *206:88 2.80419e-05
61 *203:78 *206:46 0.000851179
62 *204:57 *2280:C 6.50242e-05
*RES
1 *2371:Q *206:4 1.6 
2 *206:4 *206:14 19.195 
3 *206:14 *2279:A 5.095 
4 *206:14 *464:DIODE 1.6 
5 *206:4 *206:46 48.81 
6 *206:46 *206:56 20.755 
7 *206:56 *2280:C 7.425 
8 *206:56 *468:DIODE 3.6 
9 *206:46 *206:88 30.635 
10 *206:88 *239:DIODE 1.6 
11 *206:88 *2183:B 8.915 
*END

*D_NET *207 0.00813456
*CONN
*I *2281:A I *D sky130_fd_sc_hd__xor2_1
*I *2183:A I *D sky130_fd_sc_hd__or4_2
*I *2372:Q O *D sky130_fd_sc_hd__dfrtp_1
*CAP
1 *2281:A 0.00121206
2 *2183:A 0.000299255
3 *2372:Q 0.000263662
4 *207:6 0.00177498
5 *2183:B *2183:A 7.5589e-05
6 *2281:B *2281:A 0.000352551
7 *2351:RESET_B *2183:A 0.000131986
8 *2351:RESET_B *2281:A 0.00024373
9 *2353:CLK *2281:A 1.42711e-05
10 *2353:D *2281:A 0
11 *2368:D *2281:A 0.000452214
12 *2372:D *2281:A 0.00209171
13 *2372:RESET_B *207:6 3.1968e-05
14 *2382:A *2281:A 1.32974e-05
15 *39:28 *2281:A 8.7435e-05
16 *95:18 *2183:A 6.01704e-05
17 *95:46 *2183:A 4.41506e-05
18 *141:58 *2281:A 0
19 *141:114 *2183:A 0.000550798
20 *141:114 *2281:A 0
21 *163:60 *2281:A 0.000272168
22 *170:129 *2183:A 0.000155608
23 *173:14 *2281:A 2.39315e-06
24 *186:100 *2281:A 4.56247e-06
*RES
1 *2372:Q *207:6 4.465 
2 *207:6 *2183:A 13.82 
3 *207:6 *2281:A 34.5908 
*END

*D_NET *208 0.024505
*CONN
*I *2197:D I *D sky130_fd_sc_hd__and4_1
*I *275:DIODE I *D sky130_fd_sc_hd__diode_2
*I *279:DIODE I *D sky130_fd_sc_hd__diode_2
*I *2199:B1 I *D sky130_fd_sc_hd__a31o_1
*I *241:DIODE I *D sky130_fd_sc_hd__diode_2
*I *2183:D I *D sky130_fd_sc_hd__or4_2
*I *2344:Q O *D sky130_fd_sc_hd__dfrtp_2
*CAP
1 *2197:D 0.000158831
2 *275:DIODE 0
3 *279:DIODE 5.46021e-05
4 *2199:B1 9.08364e-05
5 *241:DIODE 8.43832e-05
6 *2183:D 0
7 *2344:Q 0.00094391
8 *208:66 0.000928406
9 *208:40 0.000165489
10 *208:38 0.00122408
11 *208:36 0.00180317
12 *208:14 0.000857957
13 *208:6 0.00308621
14 *2197:D *220:59 3.73304e-05
15 *208:36 *313:DIODE 3.67779e-05
16 *208:36 *2186:D_N 0.000198762
17 *208:36 *213:182 0.000128557
18 *208:66 *220:59 3.06743e-05
19 *2183:C *241:DIODE 0.000232434
20 *2197:B *2197:D 0.000193801
21 *2197:C *2197:D 0.000423626
22 *2241:A1 *208:38 7.23602e-05
23 *2278:A2 *208:66 0.000340816
24 *2299:A1 *208:6 0.000218513
25 *2299:A2 *208:36 0.000528667
26 *2344:RESET_B *208:6 4.59515e-05
27 *2353:D *208:14 0.000351145
28 *2372:D *208:14 4.29069e-05
29 *21:22 *2197:D 7.38695e-05
30 *26:32 *208:36 7.06865e-05
31 *55:20 *208:6 0.00019669
32 *80:16 *208:36 0.000622352
33 *100:127 *208:14 0.00165337
34 *119:24 *208:14 0.00032876
35 *119:24 *208:36 0.000530867
36 *119:44 *2197:D 4.42148e-05
37 *119:87 *208:14 7.6235e-05
38 *126:20 *208:38 0.000112123
39 *134:47 *208:36 0.00130954
40 *134:47 *208:38 8.49871e-05
41 *134:175 *208:14 0.00156018
42 *156:91 *279:DIODE 0.000160342
43 *170:129 *241:DIODE 0.000193028
44 *179:104 *279:DIODE 0.000272903
45 *179:104 *2199:B1 0.000130967
46 *179:104 *208:40 2.98644e-05
47 *182:26 *208:36 0.000320917
48 *183:37 *208:38 0
49 *183:51 *208:38 2.05583e-05
50 *183:101 *2199:B1 0.000172945
51 *183:101 *208:38 0.000145496
52 *183:101 *208:40 4.09654e-05
53 *190:38 *208:36 0.000451365
54 *190:44 *208:36 0.00127925
55 *190:88 *208:38 0
56 *191:90 *208:36 2.86145e-05
57 *191:98 *208:38 0
58 *194:47 *208:38 0
59 *194:49 *208:38 0
60 *194:61 *279:DIODE 8.34281e-06
61 *194:61 *208:66 8.23457e-05
62 *203:26 *279:DIODE 0.000135392
63 *203:26 *208:66 0.00169269
64 *203:74 *208:36 7.15125e-05
65 *203:78 *208:6 0.000112349
66 *203:78 *208:14 8.40213e-05
67 *203:96 *208:36 7.21296e-06
68 *204:82 *208:36 0
69 *204:82 *208:38 0
70 *205:14 *2199:B1 0
71 *205:70 *241:DIODE 0.000119873
*RES
1 *2344:Q *208:6 12.745 
2 *208:6 *208:14 30.4 
3 *208:14 *2183:D 1.6 
4 *208:14 *241:DIODE 4.81 
5 *208:6 *208:36 43.1075 
6 *208:36 *208:38 7.6275 
7 *208:38 *208:40 0.615 
8 *208:40 *2199:B1 5.745 
9 *208:40 *279:DIODE 6.465 
10 *208:38 *208:66 21.1 
11 *208:66 *275:DIODE 3.6 
12 *208:66 *2197:D 8.97 
*END

*D_NET *209 0.0294936
*CONN
*I *248:DIODE I *D sky130_fd_sc_hd__diode_2
*I *2186:A I *D sky130_fd_sc_hd__or4b_1
*I *2218:C I *D sky130_fd_sc_hd__or4b_1
*I *2204:A1 I *D sky130_fd_sc_hd__a21oi_1
*I *287:DIODE I *D sky130_fd_sc_hd__diode_2
*I *2203:A I *D sky130_fd_sc_hd__and3_2
*I *284:DIODE I *D sky130_fd_sc_hd__diode_2
*I *301:DIODE I *D sky130_fd_sc_hd__diode_2
*I *2211:A I *D sky130_fd_sc_hd__and4_2
*I *2202:A I *D sky130_fd_sc_hd__xor2_1
*I *282:DIODE I *D sky130_fd_sc_hd__diode_2
*I *320:DIODE I *D sky130_fd_sc_hd__diode_2
*I *2345:Q O *D sky130_fd_sc_hd__dfrtp_4
*CAP
1 *248:DIODE 0
2 *2186:A 8.77791e-05
3 *2218:C 0
4 *2204:A1 0.000109614
5 *287:DIODE 0
6 *2203:A 0
7 *284:DIODE 0
8 *301:DIODE 2.93222e-05
9 *2211:A 0.000428884
10 *2202:A 0.000120176
11 *282:DIODE 0
12 *320:DIODE 1.98404e-05
13 *2345:Q 0.000323539
14 *209:142 0.00137545
15 *209:115 0.00312386
16 *209:63 0.000522235
17 *209:61 0.000146977
18 *209:59 8.29475e-05
19 *209:57 0.00390554
20 *209:43 0.00032582
21 *209:39 0.00144264
22 *209:24 0.00040535
23 *209:22 0.000530142
24 *209:14 0.00210154
25 *301:DIODE *213:118 9.23578e-05
26 *2186:A *212:48 0.000153816
27 *2204:A1 *2204:B1 4.93142e-05
28 *2211:A *303:DIODE 0.000158554
29 *2211:A *2211:B 4.93336e-05
30 *2211:A *2211:D 8.23457e-05
31 *2211:A *211:96 0.000184015
32 *2211:A *212:104 0.000228871
33 *209:39 *211:78 0.000686937
34 *209:57 *211:78 0.00111209
35 *209:57 *211:96 0.000586032
36 *209:57 *213:118 0
37 *209:61 *211:96 0.000197822
38 *209:63 *211:96 0.000121023
39 *209:115 *2204:B1 4.79157e-05
40 *209:115 *211:96 2.85623e-05
41 *209:115 *213:118 0
42 *209:142 *212:20 0.000249967
43 *209:142 *212:48 0.000129177
44 *286:DIODE *209:61 4.77719e-05
45 *362:DIODE *2211:A 0.000157401
46 *365:DIODE *2211:A 0.000135394
47 *2188:C *2186:A 3.83194e-05
48 *2188:C *209:142 0.000814843
49 *2218:A *209:22 8.65905e-05
50 *2218:A *209:24 4.99619e-05
51 *2218:B *209:22 0.000550506
52 *2225:A2 *209:115 0.000352161
53 *2339:A *209:142 4.90031e-05
54 *2345:D *2202:A 0.00034081
55 *2345:D *209:43 0.000262813
56 *2345:D *209:142 7.44647e-05
57 *18:10 *2211:A 4.75977e-05
58 *37:12 *2202:A 8.06138e-05
59 *37:12 *209:43 0.000310796
60 *75:28 *209:22 5.8678e-05
61 *75:28 *209:39 0.00015518
62 *96:20 *209:142 0.000184963
63 *96:46 *209:142 0.000212908
64 *106:34 *209:22 0.00047366
65 *106:134 *209:115 8.53557e-05
66 *110:8 *2204:A1 2.41193e-05
67 *112:12 *209:115 0.000193159
68 *116:50 *209:14 6.29646e-05
69 *116:50 *209:142 6.5536e-05
70 *120:18 *209:14 9.01285e-05
71 *125:12 *209:115 0.000958434
72 *134:39 *209:142 0.000112059
73 *138:32 *2211:A 7.47994e-05
74 *149:30 *209:14 0.000210801
75 *149:30 *209:142 0
76 *152:30 *209:43 0.000632659
77 *162:8 *209:142 0.000110702
78 *169:44 *209:142 0.00013834
79 *169:202 *301:DIODE 9.21008e-05
80 *171:66 *2202:A 0.000258101
81 *171:66 *209:43 0.000170361
82 *172:160 *209:39 0.000617454
83 *172:160 *209:57 0.000143334
84 *174:6 *209:142 0.000155491
85 *174:10 *209:142 0.000232116
86 *181:30 *209:22 0.000246472
87 *181:144 *320:DIODE 4.89295e-05
88 *181:144 *209:22 7.49327e-05
89 *181:144 *209:24 0.000112075
90 *184:54 *209:39 0
91 *184:54 *209:57 0
92 *185:80 *209:115 0.000473531
93 *195:72 *209:14 9.64235e-05
94 *200:48 *2202:A 0.000155608
95 *201:67 *209:142 6.10352e-05
96 *204:24 *209:115 7.23602e-05
*RES
1 *2345:Q *209:14 8.38357 
2 *209:14 *209:22 16.7875 
3 *209:22 *209:24 1.14 
4 *209:24 *320:DIODE 2.05 
5 *209:24 *209:39 12.86 
6 *209:39 *209:43 9.695 
7 *209:43 *282:DIODE 1.6 
8 *209:43 *2202:A 6.19 
9 *209:39 *209:57 20.25 
10 *209:57 *209:59 2 
11 *209:59 *209:61 1.83 
12 *209:61 *209:63 1.14 
13 *209:63 *2211:A 14.54 
14 *209:63 *301:DIODE 6.725 
15 *209:61 *284:DIODE 1.6 
16 *209:59 *2203:A 1.6 
17 *209:57 *209:115 46.125 
18 *209:115 *287:DIODE 1.6 
19 *209:115 *2204:A1 3.085 
20 *209:22 *2218:C 1.6 
21 *209:14 *209:142 25.068 
22 *209:142 *2186:A 3.445 
23 *209:142 *248:DIODE 1.6 
*END

*D_NET *210 0.0274487
*CONN
*I *2186:B I *D sky130_fd_sc_hd__or4b_1
*I *2219:A I *D sky130_fd_sc_hd__or4_1
*I *322:DIODE I *D sky130_fd_sc_hd__diode_2
*I *249:DIODE I *D sky130_fd_sc_hd__diode_2
*I *289:DIODE I *D sky130_fd_sc_hd__diode_2
*I *2204:B1 I *D sky130_fd_sc_hd__a21oi_1
*I *285:DIODE I *D sky130_fd_sc_hd__diode_2
*I *2203:B I *D sky130_fd_sc_hd__and3_2
*I *302:DIODE I *D sky130_fd_sc_hd__diode_2
*I *2211:B I *D sky130_fd_sc_hd__and4_2
*I *2346:Q O *D sky130_fd_sc_hd__dfrtp_4
*CAP
1 *2186:B 0.000231193
2 *2219:A 0
3 *322:DIODE 0.000152054
4 *249:DIODE 0
5 *289:DIODE 0
6 *2204:B1 0.000171055
7 *285:DIODE 0
8 *2203:B 0
9 *302:DIODE 0
10 *2211:B 0.000249046
11 *2346:Q 0
12 *210:101 0.000497295
13 *210:90 0.00238449
14 *210:58 0.00186223
15 *210:20 0.000930559
16 *210:18 0.00094526
17 *210:16 0.000482857
18 *210:12 0.00289114
19 *210:4 0.00278892
20 *2186:B *218:52 4.10113e-05
21 *210:90 *217:18 0.000183243
22 *210:90 *218:52 0.000196822
23 *210:101 *212:32 5.68523e-06
24 *337:DIODE *210:58 2.77283e-05
25 *407:DIODE *210:58 0.000136853
26 *2182:D *210:12 0
27 *2204:A1 *2204:B1 4.93142e-05
28 *2211:A *2211:B 4.93336e-05
29 *2217:A *210:12 0
30 *2217:A *210:58 0
31 *2219:D *322:DIODE 2.83875e-05
32 *2219:D *210:101 2.0851e-06
33 *2223:B *210:101 0.000567325
34 *2254:A2 *210:58 5.05521e-05
35 *2254:B1 *210:58 6.97024e-05
36 *19:10 *210:12 0.00106811
37 *51:16 *210:101 0
38 *56:20 *210:12 0.00137632
39 *95:24 *322:DIODE 0.000135962
40 *96:20 *322:DIODE 0.000122189
41 *96:46 *210:12 0.00043267
42 *96:46 *210:58 0.000326017
43 *97:24 *210:90 0.000522308
44 *100:99 *210:90 0.000129433
45 *107:12 *2186:B 0.000176852
46 *110:8 *2204:B1 6.69608e-06
47 *117:24 *210:90 0.000125821
48 *118:24 *210:58 0.000389772
49 *129:12 *2211:B 0.000230033
50 *129:12 *210:16 0.000291243
51 *129:12 *210:18 0.000366913
52 *129:12 *210:20 0.00100052
53 *134:175 *210:58 4.57247e-05
54 *145:8 *210:58 0.00124783
55 *151:96 *2186:B 3.64998e-06
56 *174:156 *210:90 0.00015356
57 *175:33 *2186:B 0.000176852
58 *184:38 *2211:B 0.000193516
59 *185:114 *2211:B 4.84935e-05
60 *192:38 *210:90 0.000320719
61 *195:156 *210:58 9.35484e-05
62 *197:20 *210:90 0.00169869
63 *197:44 *210:90 0.000835385
64 *198:68 *210:90 0
65 *206:46 *210:90 0.000887819
66 *209:115 *2204:B1 4.79157e-05
*RES
1 *2346:Q *210:4 1.6 
2 *210:4 *210:12 27.65 
3 *210:12 *210:16 4.865 
4 *210:16 *210:18 3.555 
5 *210:18 *210:20 9.42 
6 *210:20 *2211:B 10.175 
7 *210:20 *302:DIODE 1.6 
8 *210:18 *2203:B 1.6 
9 *210:16 *285:DIODE 1.6 
10 *210:12 *210:58 34.1 
11 *210:58 *2204:B1 4.645 
12 *210:58 *289:DIODE 1.6 
13 *210:4 *210:90 46.375 
14 *210:90 *249:DIODE 1.6 
15 *210:90 *210:101 10.99 
16 *210:101 *322:DIODE 4.585 
17 *210:101 *2219:A 1.6 
18 *210:90 *2186:B 9.575 
*END

*D_NET *211 0.0392957
*CONN
*I *2207:A I *D sky130_fd_sc_hd__nand2_1
*I *294:DIODE I *D sky130_fd_sc_hd__diode_2
*I *2211:C I *D sky130_fd_sc_hd__and4_2
*I *303:DIODE I *D sky130_fd_sc_hd__diode_2
*I *321:DIODE I *D sky130_fd_sc_hd__diode_2
*I *2218:D_N I *D sky130_fd_sc_hd__or4b_1
*I *251:DIODE I *D sky130_fd_sc_hd__diode_2
*I *2186:D_N I *D sky130_fd_sc_hd__or4b_1
*I *292:DIODE I *D sky130_fd_sc_hd__diode_2
*I *2206:A I *D sky130_fd_sc_hd__or2_1
*I *2347:Q O *D sky130_fd_sc_hd__dfrtp_4
*CAP
1 *2207:A 0.000169964
2 *294:DIODE 0
3 *2211:C 0.000610159
4 *303:DIODE 3.03799e-05
5 *321:DIODE 6.65104e-05
6 *2218:D_N 0
7 *251:DIODE 0
8 *2186:D_N 0.000123303
9 *292:DIODE 0
10 *2206:A 0.000104857
11 *2347:Q 0.000263919
12 *211:118 0.000204235
13 *211:96 0.0010886
14 *211:78 0.00119367
15 *211:70 0.00157522
16 *211:68 0.00286852
17 *211:60 0.00407977
18 *211:38 0.00137812
19 *211:14 0.00118
20 *211:10 0.00256748
21 *211:8 0.00167841
22 *2186:D_N *213:182 0.000200049
23 *2211:C *2211:D 0.000132591
24 *2211:C *212:104 0.00012076
25 *286:DIODE *211:96 1.91597e-05
26 *550:DIODE *211:10 0.000134245
27 *550:DIODE *211:38 5.35969e-06
28 *559:DIODE *211:10 0.00011852
29 *559:DIODE *211:60 4.61595e-05
30 *2211:A *303:DIODE 0.000158554
31 *2211:A *211:96 0.000184015
32 *2218:A *321:DIODE 0.00010978
33 *2218:A *211:78 0.000201503
34 *2235:A2 *2211:C 1.42598e-05
35 *2235:B1 *2211:C 0.000227078
36 *2253:A *211:60 0.00013521
37 *2264:B *2207:A 0.000149693
38 *2270:A *211:68 1.46828e-05
39 *2270:B *211:68 7.67415e-06
40 *2270:C *211:68 8.65961e-05
41 *2341:CLK *2186:D_N 4.66108e-05
42 *2354:RESET_B *211:60 9.14729e-05
43 *2355:D *2211:C 2.63208e-06
44 *2362:CLK *211:10 2.68721e-05
45 *28:28 *2211:C 1.30872e-05
46 *31:24 *211:10 1.7635e-05
47 *48:16 *2186:D_N 0.00015639
48 *48:16 *211:38 0.00135761
49 *58:18 *2207:A 5.04484e-05
50 *58:18 *211:60 0.00178778
51 *58:18 *211:118 5.21046e-05
52 *58:26 *211:60 9.30717e-05
53 *67:26 *211:60 0.000562098
54 *73:18 *2186:D_N 0.00015639
55 *73:18 *211:38 0.00134673
56 *75:28 *211:78 9.30717e-05
57 *102:10 *211:14 0
58 *106:34 *211:78 0
59 *106:108 *211:78 0
60 *106:108 *211:96 0
61 *106:134 *211:96 1.64067e-05
62 *109:12 *211:96 2.41231e-05
63 *111:8 *2206:A 5.07419e-05
64 *111:10 *211:10 0
65 *111:10 *211:14 0
66 *111:10 *211:60 0
67 *113:22 *211:8 0.000127485
68 *119:133 *211:60 0.000327894
69 *122:49 *2211:C 3.35219e-05
70 *126:12 *211:10 2.54523e-05
71 *126:12 *211:14 0.000709684
72 *126:12 *211:60 7.46533e-05
73 *126:40 *211:60 2.54692e-05
74 *134:39 *2186:D_N 2.49909e-05
75 *134:65 *2186:D_N 5.83121e-06
76 *138:32 *303:DIODE 0.000158554
77 *138:32 *211:96 0.000528971
78 *151:22 *211:68 4.77719e-05
79 *151:28 *211:68 0.00019721
80 *151:69 *211:38 3.1097e-05
81 *170:34 *211:14 0
82 *175:185 *211:38 0.000552763
83 *175:219 *211:10 1.01182e-05
84 *175:219 *211:60 0.000341174
85 *184:20 *211:68 0.00155923
86 *184:144 *211:68 0.000718129
87 *184:155 *211:68 0.000234784
88 *188:102 *2211:C 1.19028e-05
89 *192:120 *211:60 0.00061153
90 *192:126 *2207:A 3.96496e-05
91 *192:126 *211:60 0.000609269
92 *192:126 *211:118 4.76659e-05
93 *200:14 *211:38 2.12738e-05
94 *201:71 *211:68 0.00177352
95 *201:78 *211:68 0.000199584
96 *201:85 *211:68 0.000121019
97 *208:36 *2186:D_N 0.000198762
98 *209:39 *211:78 0.000686937
99 *209:57 *211:78 0.00111209
100 *209:57 *211:96 0.000586032
101 *209:61 *211:96 0.000197822
102 *209:63 *211:96 0.000121023
103 *209:115 *211:96 2.85623e-05
*RES
1 *2347:Q *211:8 8.19 
2 *211:8 *211:10 4.695 
3 *211:10 *211:14 24.035 
4 *211:14 *2206:A 3.43 
5 *211:14 *292:DIODE 1.6 
6 *211:10 *211:38 29.85 
7 *211:38 *2186:D_N 9.935 
8 *211:38 *251:DIODE 1.6 
9 *211:8 *211:60 39.375 
10 *211:60 *211:68 48.455 
11 *211:68 *211:70 2 
12 *211:70 *211:78 26.735 
13 *211:78 *2218:D_N 1.6 
14 *211:78 *321:DIODE 2.74 
15 *211:70 *211:96 14.435 
16 *211:96 *303:DIODE 3.085 
17 *211:96 *2211:C 13.64 
18 *211:60 *211:118 1.125 
19 *211:118 *294:DIODE 3.6 
20 *211:118 *2207:A 6.915 
*END

*D_NET *212 0.0274927
*CONN
*I *304:DIODE I *D sky130_fd_sc_hd__diode_2
*I *2211:D I *D sky130_fd_sc_hd__and4_2
*I *300:DIODE I *D sky130_fd_sc_hd__diode_2
*I *2210:A I *D sky130_fd_sc_hd__inv_2
*I *250:DIODE I *D sky130_fd_sc_hd__diode_2
*I *2186:C I *D sky130_fd_sc_hd__or4b_1
*I *323:DIODE I *D sky130_fd_sc_hd__diode_2
*I *2219:B I *D sky130_fd_sc_hd__or4_1
*I *2348:Q O *D sky130_fd_sc_hd__dfrtp_2
*CAP
1 *304:DIODE 0
2 *2211:D 0.000364163
3 *300:DIODE 9.37129e-05
4 *2210:A 0.000150618
5 *250:DIODE 0.00019324
6 *2186:C 0
7 *323:DIODE 0.000451417
8 *2219:B 0
9 *2348:Q 0.00122495
10 *212:104 0.00119396
11 *212:48 0.000356385
12 *212:32 0.000953369
13 *212:20 0.00121225
14 *212:14 0.000724796
15 *212:12 0.00119906
16 *212:10 0.00313307
17 *324:DIODE *323:DIODE 8.62561e-05
18 *362:DIODE *2211:D 6.88279e-05
19 *560:DIODE *212:10 0.000163192
20 *2182:D *212:104 0.000411095
21 *2186:A *212:48 0.000153816
22 *2211:A *2211:D 8.23457e-05
23 *2211:A *212:104 0.000228871
24 *2211:C *2211:D 0.000132591
25 *2211:C *212:104 0.00012076
26 *2219:D *212:32 1.61279e-05
27 *2341:CLK *250:DIODE 9.30717e-05
28 *2346:RESET_B *212:12 0.000263556
29 *2348:CLK *212:10 0.000125972
30 *2348:D *212:10 8.88523e-06
31 *2355:D *2211:D 3.21772e-05
32 *2379:A *212:12 0.000309776
33 *2379:A *212:14 6.84082e-05
34 *2379:A *212:20 1.79483e-05
35 *18:10 *2211:D 4.0939e-05
36 *21:24 *212:12 0.000479683
37 *21:24 *212:20 0.000260365
38 *28:28 *212:104 9.05535e-05
39 *51:16 *212:32 0.000584731
40 *60:10 *212:10 0.00038221
41 *60:10 *212:12 9.09109e-05
42 *60:14 *212:12 0.00116587
43 *60:14 *212:14 6.0444e-05
44 *60:14 *212:20 0.0012144
45 *73:18 *250:DIODE 0.000406535
46 *95:24 *323:DIODE 4.02502e-05
47 *95:24 *212:32 4.21518e-05
48 *106:51 *212:12 0.000112132
49 *109:12 *212:104 0.000535463
50 *119:38 *300:DIODE 2.5238e-05
51 *119:38 *2210:A 0.000198368
52 *121:12 *212:32 4.89295e-05
53 *122:49 *212:104 0.00089818
54 *130:20 *212:104 0.000976903
55 *134:39 *212:20 0.000450266
56 *134:39 *212:48 0.000436669
57 *138:28 *212:20 0.000116216
58 *159:18 *2210:A 4.41506e-05
59 *159:18 *212:20 0.000702848
60 *169:100 *250:DIODE 0.00026102
61 *171:86 *212:12 0.000287967
62 *175:33 *250:DIODE 9.30717e-05
63 *176:17 *212:12 0.000162325
64 *176:52 *212:12 0.000651868
65 *176:63 *212:12 0.000144623
66 *176:102 *2211:D 0.00014164
67 *176:142 *212:10 0
68 *176:142 *212:12 0
69 *191:74 *2210:A 5.83121e-06
70 *191:90 *250:DIODE 0.000118081
71 *193:72 *2211:D 3.64998e-06
72 *195:120 *212:12 0.0013036
73 *195:156 *212:10 0.000442588
74 *195:156 *212:12 0.000370186
75 *202:24 *300:DIODE 8.23457e-05
76 *209:142 *212:20 0.000249967
77 *209:142 *212:48 0.000129177
78 *210:101 *212:32 5.68523e-06
*RES
1 *2348:Q *212:10 24.57 
2 *212:10 *212:12 36.315 
3 *212:12 *212:14 0.87 
4 *212:14 *212:20 20.885 
5 *212:20 *212:32 13.285 
6 *212:32 *2219:B 1.6 
7 *212:32 *323:DIODE 6.535 
8 *212:20 *212:48 4.86 
9 *212:48 *2186:C 1.6 
10 *212:48 *250:DIODE 11.24 
11 *212:14 *2210:A 6.48 
12 *212:12 *300:DIODE 4.74 
13 *212:10 *212:104 27.465 
14 *212:104 *2211:D 12.305 
15 *212:104 *304:DIODE 1.6 
*END

*D_NET *213 0.0462799
*CONN
*I *313:DIODE I *D sky130_fd_sc_hd__diode_2
*I *2215:A1 I *D sky130_fd_sc_hd__a21oi_1
*I *370:DIODE I *D sky130_fd_sc_hd__diode_2
*I *2237:C I *D sky130_fd_sc_hd__and4_1
*I *2179:C I *D sky130_fd_sc_hd__nand4_1
*I *228:DIODE I *D sky130_fd_sc_hd__diode_2
*I *315:DIODE I *D sky130_fd_sc_hd__diode_2
*I *2216:A I *D sky130_fd_sc_hd__and4_1
*I *310:DIODE I *D sky130_fd_sc_hd__diode_2
*I *2214:A1 I *D sky130_fd_sc_hd__o21ai_1
*I *327:DIODE I *D sky130_fd_sc_hd__diode_2
*I *2221:A1 I *D sky130_fd_sc_hd__a31o_1
*I *2349:Q O *D sky130_fd_sc_hd__dfrtp_4
*CAP
1 *313:DIODE 0.000119808
2 *2215:A1 0.000471722
3 *370:DIODE 0
4 *2237:C 0
5 *2179:C 0.000162283
6 *228:DIODE 0
7 *315:DIODE 0
8 *2216:A 0.000140768
9 *310:DIODE 0
10 *2214:A1 0.000125473
11 *327:DIODE 0
12 *2221:A1 0.00036444
13 *2349:Q 0.000715854
14 *213:182 0.00101436
15 *213:152 0.000196726
16 *213:146 0.00364807
17 *213:144 0.0037751
18 *213:122 0.000572303
19 *213:118 0.00194121
20 *213:103 0.00143757
21 *213:92 0.000589412
22 *213:79 0.000391279
23 *213:58 0.00191263
24 *213:30 0.00183915
25 *213:24 0.00203617
26 *213:12 0.00286718
27 *2179:C *2179:D 9.52646e-05
28 *213:30 *214:38 1.92979e-05
29 *213:58 *214:38 0.00103968
30 *213:58 *214:53 9.387e-06
31 *213:146 *214:100 0.0030587
32 *301:DIODE *213:118 9.23578e-05
33 *384:DIODE *2216:A 0
34 *385:DIODE *2216:A 0.000117832
35 *2179:A *213:146 4.05674e-06
36 *2186:D_N *213:182 0.000200049
37 *2193:B *213:182 0.000100134
38 *2214:A2 *2214:A1 6.73131e-05
39 *2215:A2 *2215:A1 4.80825e-05
40 *2215:B1 *2215:A1 8.23457e-05
41 *2216:C *2216:A 3.53931e-05
42 *2221:A2 *2221:A1 9.47099e-06
43 *2221:A3 *2221:A1 0.000184
44 *2237:B *213:58 0.000119246
45 *2297:C *213:58 7.08297e-05
46 *2349:CLK *213:12 1.5186e-05
47 *2349:RESET_B *213:12 8.88715e-05
48 *2377:RESET_B *213:24 8.73389e-06
49 *18:10 *213:58 0.00108711
50 *29:12 *213:118 0.00107114
51 *39:28 *313:DIODE 3.23391e-05
52 *39:28 *213:182 0.000473027
53 *41:22 *213:12 5.77037e-05
54 *49:12 *213:118 0
55 *49:12 *213:144 0
56 *51:16 *2215:A1 0.000170942
57 *60:14 *213:24 7.03276e-05
58 *81:14 *213:152 2.67022e-05
59 *95:24 *2215:A1 0
60 *100:75 *2214:A1 3.41208e-05
61 *100:84 *2214:A1 1.95405e-05
62 *100:84 *213:103 0.00010837
63 *100:84 *213:118 0.000148893
64 *100:99 *213:118 4.77807e-05
65 *106:134 *213:118 0
66 *106:134 *213:122 0.000567994
67 *106:168 *2221:A1 4.93879e-05
68 *115:32 *2221:A1 7.23635e-05
69 *115:60 *2221:A1 6.1357e-05
70 *116:84 *2216:A 4.43871e-06
71 *121:12 *213:24 8.35157e-05
72 *123:8 *2221:A1 5.63701e-05
73 *123:8 *213:79 1.56428e-05
74 *123:8 *213:92 0.000151414
75 *130:52 *2215:A1 0.000410271
76 *131:44 *213:92 0.000767134
77 *134:47 *213:12 0.000676742
78 *134:47 *213:182 0.000499443
79 *141:36 *2221:A1 4.66108e-05
80 *141:36 *213:58 0.000523088
81 *141:36 *213:79 3.57349e-05
82 *141:36 *213:92 0.000404269
83 *151:96 *213:12 0
84 *159:18 *213:24 6.90254e-05
85 *159:40 *213:24 0.000651387
86 *159:40 *213:30 0.00013117
87 *169:22 *213:118 0.000353604
88 *169:40 *213:58 0.000781998
89 *169:202 *213:118 0.000538698
90 *169:228 *213:118 8.23753e-05
91 *171:170 *2216:A 0
92 *171:180 *2216:A 4.82919e-05
93 *171:180 *213:122 0.000343062
94 *171:198 *213:122 0.00141056
95 *175:18 *213:24 3.63576e-05
96 *175:24 *213:24 0.000123977
97 *175:24 *213:182 0
98 *175:33 *213:182 0
99 *175:75 *213:12 1.45347e-05
100 *178:8 *213:24 0.000448719
101 *184:54 *213:30 2.34888e-05
102 *184:54 *213:58 0.000502511
103 *184:54 *213:118 0.0013669
104 *186:36 *213:58 0.000511837
105 *189:60 *213:30 4.78032e-05
106 *190:88 *213:12 0.000179687
107 *192:126 *2179:C 1.33293e-05
108 *192:126 *213:152 3.86607e-05
109 *193:10 *2221:A1 5.07376e-05
110 *193:74 *213:146 4.87317e-05
111 *195:50 *213:92 0.000543112
112 *195:72 *213:30 0
113 *202:62 *313:DIODE 0.000122331
114 *206:14 *213:58 7.01359e-05
115 *208:36 *313:DIODE 3.67779e-05
116 *208:36 *213:182 0.000128557
117 *209:57 *213:118 0
118 *209:115 *213:118 0
*RES
1 *2349:Q *213:12 16.38 
2 *213:12 *213:24 28.125 
3 *213:24 *213:30 6.32 
4 *213:30 *213:58 46.36 
5 *213:58 *2221:A1 12.2375 
6 *213:58 *213:79 0.45 
7 *213:79 *327:DIODE 1.6 
8 *213:79 *213:92 16.93 
9 *213:92 *2214:A1 3.61 
10 *213:92 *213:103 1.14 
11 *213:103 *310:DIODE 1.6 
12 *213:103 *213:118 34.835 
13 *213:118 *213:122 17.975 
14 *213:122 *2216:A 8.45 
15 *213:122 *315:DIODE 1.6 
16 *213:118 *213:144 4.4 
17 *213:144 *213:146 48.75 
18 *213:146 *213:152 4.87 
19 *213:152 *228:DIODE 1.6 
20 *213:152 *2179:C 4.405 
21 *213:30 *2237:C 3.6 
22 *213:24 *370:DIODE 1.6 
23 *213:12 *213:182 11.58 
24 *213:182 *2215:A1 14.44 
25 *213:182 *313:DIODE 5.61 
*END

*D_NET *214 0.0384981
*CONN
*I *371:DIODE I *D sky130_fd_sc_hd__diode_2
*I *2237:D I *D sky130_fd_sc_hd__and4_1
*I *2179:D I *D sky130_fd_sc_hd__nand4_1
*I *229:DIODE I *D sky130_fd_sc_hd__diode_2
*I *316:DIODE I *D sky130_fd_sc_hd__diode_2
*I *2216:B I *D sky130_fd_sc_hd__and4_1
*I *2221:B1 I *D sky130_fd_sc_hd__a31o_1
*I *330:DIODE I *D sky130_fd_sc_hd__diode_2
*I *2350:Q O *D sky130_fd_sc_hd__dfrtp_4
*CAP
1 *371:DIODE 0
2 *2237:D 0
3 *2179:D 0.000165598
4 *229:DIODE 0
5 *316:DIODE 0
6 *2216:B 0.000365772
7 *2221:B1 1.64161e-05
8 *330:DIODE 0
9 *2350:Q 0.00144655
10 *214:106 0.000239992
11 *214:100 0.00172811
12 *214:98 0.0017848
13 *214:87 0.000314978
14 *214:68 0.00150746
15 *214:53 0.00135429
16 *214:38 0.00220648
17 *214:26 0.00205184
18 *214:22 0.00213156
19 *214:14 0.00335267
20 *607:DIODE *214:14 0.000118081
21 *2179:C *2179:D 9.52646e-05
22 *2239:A *214:53 4.31143e-05
23 *2244:A *2216:B 4.82863e-05
24 *2288:B1 *214:14 3.4399e-05
25 *2289:C *214:14 9.10613e-05
26 *2342:RESET_B *214:14 0.000160077
27 *2358:RESET_B *214:68 0.000160667
28 *2371:D *214:38 6.89874e-05
29 *2377:D *214:22 4.66108e-05
30 *2377:RESET_B *214:22 0.00117487
31 *2379:A *214:38 0
32 *18:10 *214:38 0.000153365
33 *18:10 *214:53 2.21075e-05
34 *31:24 *214:68 0
35 *33:26 *214:14 0.000345516
36 *35:30 *214:14 0.000385687
37 *42:26 *214:14 1.79536e-05
38 *104:34 *214:87 0
39 *105:18 *214:22 6.33103e-05
40 *105:18 *214:26 9.60355e-05
41 *115:32 *214:38 1.54318e-05
42 *115:32 *214:53 1.81185e-05
43 *115:38 *214:38 0.00118232
44 *116:72 *214:53 1.48335e-05
45 *118:24 *2216:B 0.00035822
46 *132:28 *214:38 1.00941e-05
47 *141:36 *214:38 0.000524375
48 *141:36 *214:53 8.7152e-06
49 *156:71 *214:14 3.9232e-05
50 *158:24 *214:38 0.000107546
51 *166:30 *214:38 0.000268625
52 *169:34 *2221:B1 6.44566e-05
53 *169:34 *214:68 0.00152263
54 *171:10 *214:68 0.000576004
55 *171:16 *2221:B1 6.67166e-05
56 *171:16 *214:68 0.000925369
57 *171:170 *214:68 0.00111398
58 *171:170 *214:87 8.27984e-05
59 *171:198 *214:87 2.97004e-06
60 *171:198 *214:98 1.44259e-05
61 *177:170 *214:106 0
62 *178:8 *214:14 0.000145855
63 *178:8 *214:22 0.00038896
64 *180:20 *214:14 0.000275509
65 *181:78 *214:14 0.000123257
66 *189:30 *214:22 4.6761e-05
67 *192:126 *2179:D 0.000142669
68 *192:126 *214:106 6.28843e-05
69 *193:22 *214:53 0.000357227
70 *193:50 *214:68 0.000473258
71 *193:72 *214:68 0
72 *193:72 *214:87 0
73 *193:72 *214:98 0
74 *193:74 *214:100 0.00364585
75 *199:142 *214:14 0
76 *213:30 *214:38 1.92979e-05
77 *213:58 *214:38 0.00103968
78 *213:58 *214:53 9.387e-06
79 *213:146 *214:100 0.0030587
*RES
1 *2350:Q *214:14 33.035 
2 *214:14 *214:22 24.735 
3 *214:22 *214:26 2.88 
4 *214:26 *214:38 30.8312 
5 *214:38 *330:DIODE 3.6 
6 *214:38 *214:53 3.04797 
7 *214:53 *2221:B1 4.3425 
8 *214:53 *214:68 36.2325 
9 *214:68 *2216:B 9 
10 *214:68 *214:87 3.21 
11 *214:87 *316:DIODE 3.6 
12 *214:87 *214:98 4.145 
13 *214:98 *214:100 59.1 
14 *214:100 *214:106 5.38 
15 *214:106 *229:DIODE 1.6 
16 *214:106 *2179:D 5.335 
17 *214:26 *2237:D 1.6 
18 *214:22 *371:DIODE 1.6 
*END

*D_NET *215 0.0125316
*CONN
*I *2391:A I *D sky130_fd_sc_hd__buf_1
*I *2378:X O *D sky130_fd_sc_hd__buf_1
*CAP
1 *2391:A 0.00137672
2 *2378:X 0.00100403
3 *215:16 0.00238075
4 *215:16 *612:DIODE 6.90438e-05
5 *395:DIODE *215:16 1.58398e-05
6 *475:DIODE *2391:A 4.35348e-05
7 *475:DIODE *215:16 0.000157172
8 *2229:B *2391:A 0.000108031
9 *2249:B *215:16 1.81918e-05
10 *2249:C *215:16 0.000454103
11 *2249:D *215:16 6.11706e-05
12 *2260:A *2391:A 2.16917e-05
13 *2272:B *2391:A 0.000341975
14 *2272:B *215:16 0.000159194
15 *2281:B *215:16 0.00051799
16 *2285:B1 *2391:A 6.19801e-05
17 *2307:A *2391:A 2.08249e-05
18 *57:14 *2391:A 0.000342914
19 *115:70 *215:16 0.00146499
20 *123:8 *215:16 0.000734454
21 *130:46 *215:16 0.000670753
22 *134:105 *215:16 0.000245993
23 *134:159 *215:16 9.23473e-05
24 *141:36 *215:16 0.000132403
25 *156:14 *215:16 6.92161e-05
26 *156:38 *215:16 1.91597e-05
27 *162:20 *215:16 0.00034189
28 *179:14 *2391:A 0.000821367
29 *186:113 *2391:A 0.000151574
30 *193:22 *215:16 0.00061837
31 *205:64 *215:16 1.39621e-05
*RES
1 *2378:X *215:16 39.71 
2 *215:16 *2391:A 26.125 
*END

*D_NET *216 0.0102177
*CONN
*I *2392:A I *D sky130_fd_sc_hd__buf_1
*I *2293:Y O *D sky130_fd_sc_hd__inv_2
*CAP
1 *2392:A 0.000902871
2 *2293:Y 0.00129663
3 *216:12 0.0021995
4 *373:DIODE *2392:A 3.75126e-05
5 *466:DIODE *2392:A 9.2073e-05
6 *2226:A *2392:A 0.000186393
7 *2226:C *2392:A 5.82176e-05
8 *2264:B *216:12 0
9 *2280:C *216:12 5.19629e-05
10 *42:26 *216:12 0.000221495
11 *115:70 *2392:A 0.000381552
12 *119:115 *216:12 4.76263e-05
13 *119:133 *2392:A 4.92062e-05
14 *126:8 *2392:A 0.000533428
15 *156:140 *2392:A 8.1871e-05
16 *161:16 *216:12 0.000743451
17 *177:124 *216:12 2.75538e-05
18 *180:156 *216:12 0.000302217
19 *183:150 *216:12 0.00215117
20 *184:161 *2392:A 8.57024e-05
21 *185:30 *2392:A 7.66388e-05
22 *201:71 *216:12 0.000253667
23 *203:56 *2392:A 6.0011e-05
24 *203:58 *2392:A 0.000145561
25 *203:66 *2392:A 0.000147788
26 *206:56 *216:12 8.35683e-05
*RES
1 *2293:Y *216:12 37.43 
2 *216:12 *2392:A 21.37 
*END

*D_NET *217 0.0169905
*CONN
*I *2393:A I *D sky130_fd_sc_hd__buf_1
*I *616:DIODE I *D sky130_fd_sc_hd__diode_2
*I *2296:Y O *D sky130_fd_sc_hd__o21ai_2
*CAP
1 *2393:A 2.65196e-05
2 *616:DIODE 0
3 *2296:Y 0.00215789
4 *217:32 0.00221446
5 *217:26 0.00337644
6 *217:18 0.00334639
7 *217:18 *218:52 2.20728e-05
8 *2180:B *217:32 7.40446e-05
9 *2251:C *217:18 0.000161837
10 *2357:RESET_B *217:26 0.000112643
11 *2379:A *217:26 0.000106321
12 *58:26 *217:32 0.000120655
13 *60:14 *217:26 0.000799613
14 *117:24 *217:26 1.7635e-05
15 *156:65 *217:32 0.000118081
16 *167:28 *217:26 0.000742814
17 *167:38 *217:18 0.00253762
18 *172:46 *217:32 0.000325248
19 *174:165 *217:26 0.000191981
20 *190:6 *217:26 8.62564e-05
21 *190:34 *217:26 0.00022042
22 *190:34 *217:32 1.08758e-05
23 *190:138 *217:32 3.74161e-05
24 *210:90 *217:18 0.000183243
*RES
1 *2296:Y *217:18 45.25 
2 *217:18 *217:26 23.045 
3 *217:26 *217:32 30.585 
4 *217:32 *616:DIODE 1.6 
5 *217:32 *2393:A 2.05 
*END

*D_NET *218 0.0271574
*CONN
*I *612:DIODE I *D sky130_fd_sc_hd__diode_2
*I *2378:A I *D sky130_fd_sc_hd__buf_1
*I *2394:A I *D sky130_fd_sc_hd__buf_1
*I *617:DIODE I *D sky130_fd_sc_hd__diode_2
*I *2295:X O *D sky130_fd_sc_hd__a211o_1
*CAP
1 *612:DIODE 5.44779e-05
2 *2378:A 0
3 *2394:A 2.81638e-05
4 *617:DIODE 0
5 *2295:X 0.00303226
6 *218:76 0.000678162
7 *218:58 0.00109865
8 *218:52 0.00317689
9 *218:34 0.00576235
10 *438:DIODE *218:52 8.30853e-06
11 *2186:B *218:52 4.10113e-05
12 *2220:A *218:34 4.82919e-05
13 *2220:C *218:34 0.00192626
14 *2267:A *218:58 4.21579e-05
15 *2295:A1 *218:34 5.062e-06
16 *2295:B1 *218:34 0.000136544
17 *2295:C1 *218:34 6.88421e-05
18 *2329:A *218:52 1.88602e-05
19 *2341:RESET_B *218:52 0.00015624
20 *2366:RESET_B *218:58 0.00092978
21 *30:18 *218:34 0.000208292
22 *70:12 *218:34 0.000122711
23 *70:12 *218:76 0.000879013
24 *71:22 *218:34 0.000182872
25 *75:38 *218:52 0
26 *82:18 *218:34 0.000120406
27 *82:18 *218:76 0.00190935
28 *88:20 *218:52 0.000155601
29 *94:43 *218:34 0.00194552
30 *101:26 *218:34 7.65411e-06
31 *101:26 *218:76 0.000276225
32 *106:34 *218:76 0.000735217
33 *122:14 *218:34 9.77048e-06
34 *123:8 *612:DIODE 2.51225e-05
35 *123:8 *218:76 2.76356e-05
36 *132:28 *218:34 9.23379e-06
37 *136:50 *218:34 0
38 *141:36 *612:DIODE 0.000183034
39 *141:36 *218:76 8.23457e-05
40 *151:71 *218:52 3.93371e-05
41 *151:96 *218:52 0.000695217
42 *153:22 *218:34 9.23379e-06
43 *153:22 *218:52 0.00026219
44 *167:38 *218:52 0.000960825
45 *167:48 *218:34 0
46 *172:21 *218:52 6.55244e-06
47 *181:30 *218:76 0.000148935
48 *196:44 *218:34 0
49 *199:116 *218:58 0.000157401
50 *199:122 *218:58 0.00038006
51 *202:62 *218:52 5.78448e-05
52 *205:64 *218:52 5.95051e-05
53 *210:90 *218:52 0.000196822
54 *215:16 *612:DIODE 6.90438e-05
55 *217:18 *218:52 2.20728e-05
*RES
1 *2295:X *218:34 40.4185 
2 *218:34 *218:52 33.6883 
3 *218:52 *218:58 19.89 
4 *218:58 *617:DIODE 1.6 
5 *218:58 *2394:A 2.05 
6 *218:34 *218:76 25.595 
7 *218:76 *2378:A 1.6 
8 *218:76 *612:DIODE 3.43 
*END

*D_NET *219 0.0151342
*CONN
*I *2395:A I *D sky130_fd_sc_hd__buf_1
*I *618:DIODE I *D sky130_fd_sc_hd__diode_2
*I *2298:X O *D sky130_fd_sc_hd__buf_1
*CAP
1 *2395:A 7.10053e-05
2 *618:DIODE 0
3 *2298:X 0.00236582
4 *219:26 0.00160639
5 *219:24 0.0039012
6 *219:24 *2292:B1 0.000127245
7 *489:DIODE *219:24 3.09179e-05
8 *490:DIODE *219:24 8.23457e-05
9 *2292:A2 *219:24 0.0001249
10 *2301:A *219:26 3.45679e-05
11 *2367:D *219:24 0.000566577
12 *2367:RESET_B *219:24 0.000198945
13 *2371:D *219:24 0.000109489
14 *2373:CLK *219:26 8.23457e-05
15 *2373:D *219:26 0.000446987
16 *35:20 *219:24 0.000484962
17 *35:30 *219:26 0.000115705
18 *51:16 *219:24 0.000134516
19 *60:16 *219:24 0.000186293
20 *74:10 *219:24 0
21 *115:38 *219:24 0.000235938
22 *143:24 *219:26 0.00096866
23 *166:10 *219:24 4.82919e-05
24 *166:30 *219:24 0.000339027
25 *169:125 *219:26 0.000152527
26 *170:8 *219:26 0.000160641
27 *171:116 *219:26 0.00126085
28 *178:16 *219:26 0.000496193
29 *179:10 *219:26 7.00322e-05
30 *182:36 *219:24 8.33055e-05
31 *182:46 *219:24 1.91597e-05
32 *188:42 *219:24 0.000339027
33 *198:14 *219:26 0.000290386
*RES
1 *2298:X *219:24 49.59 
2 *219:24 *219:26 35.985 
3 *219:26 *618:DIODE 1.6 
4 *219:26 *2395:A 2.755 
*END

*D_NET *220 0.0162302
*CONN
*I *485:DIODE I *D sky130_fd_sc_hd__diode_2
*I *2292:B1 I *D sky130_fd_sc_hd__o21ai_4
*I *491:DIODE I *D sky130_fd_sc_hd__diode_2
*I *473:DIODE I *D sky130_fd_sc_hd__diode_2
*I *2284:A I *D sky130_fd_sc_hd__inv_2
*I *2289:A I *D sky130_fd_sc_hd__and3_1
*I *2396:A I *D sky130_fd_sc_hd__buf_1
*I *619:DIODE I *D sky130_fd_sc_hd__diode_2
*I *2283:X O *D sky130_fd_sc_hd__buf_2
*CAP
1 *485:DIODE 0
2 *2292:B1 0.000104754
3 *491:DIODE 3.98087e-05
4 *473:DIODE 0
5 *2284:A 3.13799e-05
6 *2289:A 0
7 *2396:A 0
8 *619:DIODE 3.24492e-05
9 *2283:X 0.00178579
10 *220:73 0.000218079
11 *220:59 0.000453883
12 *220:53 0.000697364
13 *220:42 0.000260911
14 *220:38 0.0023618
15 *220:14 0.000464865
16 *220:8 0.00452044
17 seg[3] *220:8 1.96913e-05
18 *489:DIODE *491:DIODE 2.49909e-05
19 *489:DIODE *2292:B1 8.23457e-05
20 *552:DIODE *220:38 5.7838e-05
21 *2188:B *220:59 2.96318e-05
22 *2197:C *220:59 0.000109572
23 *2197:D *220:59 3.73304e-05
24 *2289:C *220:42 0.000122797
25 *2289:C *220:53 4.78292e-05
26 *2290:A *220:53 0.000567476
27 *2343:CLK *220:38 0.000157711
28 *2343:RESET_B *220:38 0.000304994
29 *2374:RESET_B *220:38 0.00118398
30 *2374:RESET_B *220:42 5.61262e-05
31 *2374:RESET_B *220:53 0.0004084
32 *97:24 *220:59 4.47504e-06
33 *108:30 *220:8 0
34 *156:101 *2284:A 9.22206e-05
35 *156:101 *220:59 0.000110537
36 *162:8 *220:59 0
37 *166:10 *2292:B1 4.99619e-05
38 *182:36 *2292:B1 0.000200988
39 *187:12 *220:8 0.000347755
40 *197:20 *2292:B1 0
41 *197:20 *220:59 0
42 *197:20 *220:73 0
43 *198:28 *2292:B1 6.11812e-05
44 *198:28 *220:59 0.000283907
45 *198:28 *220:73 0.000129735
46 *203:26 *2284:A 0.000159722
47 *203:26 *220:59 0.000197858
48 *205:8 *220:38 0.000120655
49 *205:28 *220:59 0.000131022
50 *208:66 *220:59 3.06743e-05
51 *219:24 *2292:B1 0.000127245
*RES
1 *2283:X *220:8 33.285 
2 *220:8 *220:14 8.93 
3 *220:14 *619:DIODE 2.05 
4 *220:14 *2396:A 1.6 
5 *220:8 *220:38 40.295 
6 *220:38 *220:42 1.845 
7 *220:42 *2289:A 1.6 
8 *220:42 *220:53 9.02 
9 *220:53 *220:59 12.095 
10 *220:59 *2284:A 3.085 
11 *220:59 *473:DIODE 1.6 
12 *220:53 *220:73 1.635 
13 *220:73 *491:DIODE 4.05 
14 *220:73 *2292:B1 6.99 
15 *220:38 *485:DIODE 1.6 
*END

*D_NET *221 0.0134267
*CONN
*I *2397:A I *D sky130_fd_sc_hd__buf_1
*I *620:DIODE I *D sky130_fd_sc_hd__diode_2
*I *2299:Y O *D sky130_fd_sc_hd__o31ai_2
*CAP
1 *2397:A 0.000103354
2 *620:DIODE 0.000103464
3 *2299:Y 0.0030657
4 *221:20 0.00277286
5 *221:14 0.00563174
6 seg[2] *221:20 1.79483e-05
7 seg[4] *221:20 1.79483e-05
8 seg[6] *620:DIODE 0.000123955
9 seg[6] *2397:A 5.06989e-05
10 *2376:CLK *221:14 2.76356e-05
11 *2376:D *221:14 8.39896e-05
12 *2376:RESET_B *221:14 2.31025e-05
13 *130:46 *221:14 0.000338063
14 *134:105 *221:14 0.000541167
15 *178:52 *221:14 2.76356e-05
16 *180:58 *221:14 4.08633e-05
17 *182:14 *221:14 0.000323739
18 *204:76 *221:14 0.000132821
*RES
1 *2299:Y *221:14 46 
2 *221:14 *221:20 45.08 
3 *221:20 *620:DIODE 3.085 
4 *221:20 *2397:A 3.61 
*END
